name                                    
   1.00000000000000     
     3.5333992359000002    0.0000000000000000    0.0000000000000000
    -1.7666996179000001    3.0600135000000002    0.0000000000000000
     0.0000000000000000    0.0000000000000000   25.0000000000000000
   W    Te
     1     2
Direct
  0.0000000000000000 -0.0000000000000000  0.5000000000000000
  0.6666666667000030  0.3333333332999970  0.4272275935970943
  0.6666666667000030  0.3333333332999970  0.5727724064029057
 
  0.00000000E+00  0.00000000E+00  0.00000000E+00
  0.00000000E+00  0.00000000E+00  0.00000000E+00
  0.00000000E+00  0.00000000E+00  0.00000000E+00
