Hf3 Zr3 Se12                            
   1.00000000000000     
    -5.6038119999999996   -3.2353619999999998    0.0000000000000000
    -5.6038119999999996    3.2353619999999998    0.0000000000000000
     0.0000000000000000    0.0000000000000000  -30.0000000000000000
   Hf   Zr   Se
     3     3    12
Direct
  0.6666669999999968  0.6666669999999968  0.3833236730057052
  0.3333330000000032  0.3333330000000032  0.3833236730057052
  0.0000000000000000  0.0000000000000000  0.3833236730057052
  0.0000000000000000  0.0000000000000000  0.6133120090310840
  0.3333330000000032  0.3333330000000032  0.6133120090310840
  0.6666669999999968  0.6666669999999968  0.6133120090310840
  0.3333330000000032  0.0000000000000000  0.4384529527490386
  0.0000000000000000  0.6666669999999968  0.3280103320863077
  0.6666669999999968  0.3333330000000032  0.3280103320863077
  0.3333330000000032  0.0000000000000000  0.3280103320863077
  0.0000000000000000  0.3333330000000032  0.6670942265429645
  0.6666669999999968  0.0000000000000000  0.6670942265429645
  0.3333330000000032  0.6666669999999968  0.6670942265429645
  0.0000000000000000  0.6666669999999968  0.5598108065848990
  0.6666669999999968  0.3333330000000032  0.5598108065848990
  0.3333330000000032  0.0000000000000000  0.5598108065848990
  0.6666669999999968  0.3333330000000032  0.4384529527490386
  0.0000000000000000  0.6666669999999968  0.4384529527490386
 
  0.00000000E+00  0.00000000E+00  0.00000000E+00
  0.00000000E+00  0.00000000E+00  0.00000000E+00
  0.00000000E+00  0.00000000E+00  0.00000000E+00
  0.00000000E+00  0.00000000E+00  0.00000000E+00
  0.00000000E+00  0.00000000E+00  0.00000000E+00
  0.00000000E+00  0.00000000E+00  0.00000000E+00
  0.00000000E+00  0.00000000E+00  0.00000000E+00
  0.00000000E+00  0.00000000E+00  0.00000000E+00
  0.00000000E+00  0.00000000E+00  0.00000000E+00
  0.00000000E+00  0.00000000E+00  0.00000000E+00
  0.00000000E+00  0.00000000E+00  0.00000000E+00
  0.00000000E+00  0.00000000E+00  0.00000000E+00
  0.00000000E+00  0.00000000E+00  0.00000000E+00
  0.00000000E+00  0.00000000E+00  0.00000000E+00
  0.00000000E+00  0.00000000E+00  0.00000000E+00
  0.00000000E+00  0.00000000E+00  0.00000000E+00
  0.00000000E+00  0.00000000E+00  0.00000000E+00
  0.00000000E+00  0.00000000E+00  0.00000000E+00
