Zr3 Ti3 Te6 S6                          
   1.00000000000000     
    -5.5627449999999996   -3.2116530000000001    0.0000000000000000
    -5.5627449999999996    3.2116530000000001    0.0000000000000000
     0.0000000000000000    0.0000000000000000  -30.0000000000000000
   Zr   Ti   Te   S 
     3     3     6     6
Direct
  0.0000000000000000  0.0000000000000000  0.6089649103069803
  0.3333330000000032  0.3333330000000032  0.6089649103069803
  0.6666669999999968  0.6666669999999968  0.6089649103069803
  0.6666669999999968  0.6666669999999968  0.3798062419932720
  0.3333330000000032  0.3333330000000032  0.3798062419932720
  0.0000000000000000  0.0000000000000000  0.3798062419932720
  0.3333330000000032  0.0000000000000000  0.4391311440319541
  0.0000000000000000  0.6666669999999968  0.3199459333204118
  0.6666669999999968  0.3333330000000032  0.3199459333204118
  0.3333330000000032  0.0000000000000000  0.3199459333204118
  0.0000000000000000  0.6666669999999968  0.4391311440319541
  0.6666669999999968  0.3333330000000032  0.4391311440319541
  0.6666669999999968  0.0000000000000000  0.6568178428487599
  0.3333330000000032  0.6666669999999968  0.6568178428487599
  0.0000000000000000  0.6666669999999968  0.5610799274986320
  0.6666669999999968  0.3333330000000032  0.5610799274986320
  0.3333330000000032  0.0000000000000000  0.5610799274986320
  0.0000000000000000  0.3333330000000032  0.6568178428487599
 
  0.00000000E+00  0.00000000E+00  0.00000000E+00
  0.00000000E+00  0.00000000E+00  0.00000000E+00
  0.00000000E+00  0.00000000E+00  0.00000000E+00
  0.00000000E+00  0.00000000E+00  0.00000000E+00
  0.00000000E+00  0.00000000E+00  0.00000000E+00
  0.00000000E+00  0.00000000E+00  0.00000000E+00
  0.00000000E+00  0.00000000E+00  0.00000000E+00
  0.00000000E+00  0.00000000E+00  0.00000000E+00
  0.00000000E+00  0.00000000E+00  0.00000000E+00
  0.00000000E+00  0.00000000E+00  0.00000000E+00
  0.00000000E+00  0.00000000E+00  0.00000000E+00
  0.00000000E+00  0.00000000E+00  0.00000000E+00
  0.00000000E+00  0.00000000E+00  0.00000000E+00
  0.00000000E+00  0.00000000E+00  0.00000000E+00
  0.00000000E+00  0.00000000E+00  0.00000000E+00
  0.00000000E+00  0.00000000E+00  0.00000000E+00
  0.00000000E+00  0.00000000E+00  0.00000000E+00
  0.00000000E+00  0.00000000E+00  0.00000000E+00
