Zr3 Mo4 Se8 S6                          
   1.00000000000000     
    -3.2533759999999998   -5.6350119999999997    0.0000000000000000
    -6.5067519999999996    0.0000000000000000    0.0000000000000000
     0.0000000000000000    0.0000000000000000  -30.0000000000000000
   Zr   Mo   Se   S 
     3     4     8     6
Direct
  0.0000000000000000  0.0000000000000000  0.6023177577316332
  0.3333330000000032  0.3333330000000032  0.6025311826049702
  0.6666669999999968  0.6666669999999968  0.6031928159120810
  0.4992903846482193  0.5009543007463009  0.3889678992356380
  0.5009543007463009  0.9997553146054798  0.3889678992356380
  0.0000000000000000  0.0000000000000000  0.3889615285407828
  0.9997553146054798  0.4992903846482193  0.3889678992356380
  0.6665217990278336  0.1681587439176226  0.4451310739134726
  0.1673619822609496  0.1660033580724942  0.3326661626660012
  0.1660033580724942  0.6666356596665537  0.3326661626660012
  0.6666356596665537  0.1673619822609496  0.3326661626660012
  0.6666669999999968  0.6666669999999968  0.3326391500876937
  0.1681587439176226  0.1653204570545341  0.4451310739134726
  0.1653204570545341  0.6665217990278336  0.4451310739134726
  0.6666669999999968  0.6666669999999968  0.4453854463401683
  0.6667754360179501  0.3324536970050005  0.6498016333987522
  0.0007708669770494  0.6667754360179501  0.6498016333987522
  0.6665586235684913  0.9989679938192566  0.5556796037136920
  0.3344733826122450  0.6665586235684913  0.5556796037136920
  0.9989679938192566  0.3344733826122450  0.5556796037136920
  0.3324536970050005  0.0007708669770494  0.6498016333987522
 
  0.00000000E+00  0.00000000E+00  0.00000000E+00
  0.00000000E+00  0.00000000E+00  0.00000000E+00
  0.00000000E+00  0.00000000E+00  0.00000000E+00
  0.00000000E+00  0.00000000E+00  0.00000000E+00
  0.00000000E+00  0.00000000E+00  0.00000000E+00
  0.00000000E+00  0.00000000E+00  0.00000000E+00
  0.00000000E+00  0.00000000E+00  0.00000000E+00
  0.00000000E+00  0.00000000E+00  0.00000000E+00
  0.00000000E+00  0.00000000E+00  0.00000000E+00
  0.00000000E+00  0.00000000E+00  0.00000000E+00
  0.00000000E+00  0.00000000E+00  0.00000000E+00
  0.00000000E+00  0.00000000E+00  0.00000000E+00
  0.00000000E+00  0.00000000E+00  0.00000000E+00
  0.00000000E+00  0.00000000E+00  0.00000000E+00
  0.00000000E+00  0.00000000E+00  0.00000000E+00
  0.00000000E+00  0.00000000E+00  0.00000000E+00
  0.00000000E+00  0.00000000E+00  0.00000000E+00
  0.00000000E+00  0.00000000E+00  0.00000000E+00
  0.00000000E+00  0.00000000E+00  0.00000000E+00
  0.00000000E+00  0.00000000E+00  0.00000000E+00
  0.00000000E+00  0.00000000E+00  0.00000000E+00
