name                                    
   1.00000000000000     
     3.2533757713000000    0.0000000000000000    0.0000000000000000
    -1.6266878857000000    2.8175060660000000    0.0000000000000000
     0.0000000000000000    0.0000000000000000   25.0000000000000000
   Mo   Se
     1     2
Direct
 -0.0000000000000000  0.0000000000000000  0.5000000000000000
  0.6666666667000030  0.3333333332999970  0.4322885470268272
  0.6666666667000030  0.3333333332999970  0.5677114529731728
 
  0.00000000E+00  0.00000000E+00  0.00000000E+00
  0.00000000E+00  0.00000000E+00  0.00000000E+00
  0.00000000E+00  0.00000000E+00  0.00000000E+00
