name                                    
   1.00000000000000     
     3.2397800000000001    0.0000000000000000    0.0000000000000000
    -1.6198900000000001    2.8057317827000001    0.0000000000000000
     0.0000000000000000    0.0000000000000000   25.0000000000000000
   Pd   O 
     1     2
Direct
  0.0000000000000000 -0.0000000000000000  0.5000000000000000
  0.6666666667000030  0.3333333332999970  0.4645140675013636
  0.3333333332999970  0.6666666667000030  0.5354859324986363
 
  0.00000000E+00  0.00000000E+00  0.00000000E+00
  0.00000000E+00  0.00000000E+00  0.00000000E+00
  0.00000000E+00  0.00000000E+00  0.00000000E+00
