name                                    
   1.00000000000000     
     3.3523885000000000    0.0000000000000000    0.0000000000000000
    -1.6761942500000000    2.9032536044000001    0.0000000000000000
     0.0000000000000000    0.0000000000000000   25.0000000000000000
   W    Se
     1     2
Direct
  0.0000000000000000  0.0000000000000000  0.5000000000000000
  0.6666666667000030  0.3333333332999970  0.4334400603596009
  0.6666666667000030  0.3333333332999970  0.5665599396403991
 
  0.00000000E+00  0.00000000E+00  0.00000000E+00
  0.00000000E+00  0.00000000E+00  0.00000000E+00
  0.00000000E+00  0.00000000E+00  0.00000000E+00
