Te6 Pd3 W7 O14                          
   1.00000000000000     
    -5.4623419999999996   -4.7305270000000004    0.0000000000000000
    -6.8279269999999999    2.3652630000000001    0.0000000000000000
     0.0000000000000000    0.0000000000000000  -30.0000000000000000
   Te   Pd   W    O 
     6     3     7    14
Direct
  0.3353655582620618  0.9992903479066655  0.5497718383199128
  0.6653440938312727  0.3353655582620618  0.5497718383199128
  0.9992903479066655  0.6653440938312727  0.5497718383199128
  0.3321779640196425  0.6674227725357440  0.6358440239468450
  0.6674227725357440  0.0003992634446135  0.6358440239468450
  0.0003992634446135  0.3321779640196425  0.6358440239468450
  0.0000000000000000  0.0000000000000000  0.5920580201388717
  0.3333330000000032  0.3333330000000032  0.5926101117951603
  0.6666669999999968  0.6666669999999968  0.5928727101874784
  0.8571477942235077  0.7142632908528981  0.4053806947775271
  0.4285889149236013  0.8571477942235077  0.4053806947775271
  0.5714164350684356  0.1427701949970412  0.4054094625257960
  0.7142632908528981  0.4285889149236013  0.4053806947775271
  0.1427701949970412  0.2858133699345160  0.4054094625257960
  0.0000000000000000  0.0000000000000000  0.4050011068759147
  0.2858133699345160  0.5714164350684356  0.4054094625257960
  0.6191879413341823  0.9047251946947767  0.4480608174815757
  0.7627408573036618  0.1896184500967877  0.4477466717164802
  0.4760868639710409  0.6191879413341823  0.4480608174815757
  0.3333330000000032  0.3333330000000032  0.4480859044419319
  0.1896184500967877  0.0476406925995434  0.4477466717164802
  0.0478810893436332  0.7612420058680982  0.3627555431768030
  0.9047088850001828  0.4762660316940526  0.3629320195315842
  0.7612420058680982  0.1908769047882686  0.3627555431768030
  0.4762660316940526  0.6190250833057647  0.3629320195315842
  0.3333330000000032  0.3333330000000032  0.3629849321310843
  0.1908769047882686  0.0478810893436332  0.3627555431768030
  0.9047251946947767  0.4760868639710409  0.4480608174815757
  0.6190250833057647  0.9047088850001828  0.3629320195315842
  0.0476406925995434  0.7627408573036618  0.4477466717164802
 
  0.00000000E+00  0.00000000E+00  0.00000000E+00
  0.00000000E+00  0.00000000E+00  0.00000000E+00
  0.00000000E+00  0.00000000E+00  0.00000000E+00
  0.00000000E+00  0.00000000E+00  0.00000000E+00
  0.00000000E+00  0.00000000E+00  0.00000000E+00
  0.00000000E+00  0.00000000E+00  0.00000000E+00
  0.00000000E+00  0.00000000E+00  0.00000000E+00
  0.00000000E+00  0.00000000E+00  0.00000000E+00
  0.00000000E+00  0.00000000E+00  0.00000000E+00
  0.00000000E+00  0.00000000E+00  0.00000000E+00
  0.00000000E+00  0.00000000E+00  0.00000000E+00
  0.00000000E+00  0.00000000E+00  0.00000000E+00
  0.00000000E+00  0.00000000E+00  0.00000000E+00
  0.00000000E+00  0.00000000E+00  0.00000000E+00
  0.00000000E+00  0.00000000E+00  0.00000000E+00
  0.00000000E+00  0.00000000E+00  0.00000000E+00
  0.00000000E+00  0.00000000E+00  0.00000000E+00
  0.00000000E+00  0.00000000E+00  0.00000000E+00
  0.00000000E+00  0.00000000E+00  0.00000000E+00
  0.00000000E+00  0.00000000E+00  0.00000000E+00
  0.00000000E+00  0.00000000E+00  0.00000000E+00
  0.00000000E+00  0.00000000E+00  0.00000000E+00
  0.00000000E+00  0.00000000E+00  0.00000000E+00
  0.00000000E+00  0.00000000E+00  0.00000000E+00
  0.00000000E+00  0.00000000E+00  0.00000000E+00
  0.00000000E+00  0.00000000E+00  0.00000000E+00
  0.00000000E+00  0.00000000E+00  0.00000000E+00
  0.00000000E+00  0.00000000E+00  0.00000000E+00
  0.00000000E+00  0.00000000E+00  0.00000000E+00
  0.00000000E+00  0.00000000E+00  0.00000000E+00
