Ge1 Pt1 O4                              
   1.00000000000000     
    -1.5107130000000000   -2.6166330000000002    0.0000000000000000
    -3.0214270000000001    0.0000000000000000    0.0000000000000000
     0.0000000000000000    0.0000000000000000  -30.0000000000000000
   Ge   Pt   O 
     1     1     4
Direct
  0.0000000000000000  0.0000000000000000  0.5743923508381670
  0.0000000000000000  0.0000000000000000  0.4265848247952846
  0.3333330000000032  0.3333330000000032  0.5430121784472846
  0.6666669999999968  0.6666669999999968  0.6058972379569951
  0.3333330000000032  0.3333330000000032  0.3922185686106019
  0.6666669999999968  0.6666669999999968  0.4607248393516628
 
  0.00000000E+00  0.00000000E+00  0.00000000E+00
  0.00000000E+00  0.00000000E+00  0.00000000E+00
  0.00000000E+00  0.00000000E+00  0.00000000E+00
  0.00000000E+00  0.00000000E+00  0.00000000E+00
  0.00000000E+00  0.00000000E+00  0.00000000E+00
  0.00000000E+00  0.00000000E+00  0.00000000E+00
