name                                    
   1.00000000000000     
     3.6246779340000002    0.0000000000000000    0.0000000000000000
    -1.8123389670000001    3.1390631714000001    0.0000000000000000
     0.0000000000000000    0.0000000000000000   25.0000000000000000
   Pt   S 
     1     2
Direct
  0.0000000000000000  0.0000000000000000  0.5000000000000000
  0.6666666667000030  0.3333333332999970  0.4520817700163917
  0.3333333332999970  0.6666666667000030  0.5479182299836084
 
  0.00000000E+00  0.00000000E+00  0.00000000E+00
  0.00000000E+00  0.00000000E+00  0.00000000E+00
  0.00000000E+00  0.00000000E+00  0.00000000E+00
