Hf3 Pb3 S6 O6                           
   1.00000000000000     
     0.0000000000000000   -6.0984809999999996    0.0000000000000000
    -5.2814399999999999   -3.0492409999999999    0.0000000000000000
     0.0000000000000000    0.0000000000000000  -30.0000000000000000
   Hf   Pb   S    O 
     3     3     6     6
Direct
  0.0000000000000000  0.0000000000000000  0.5990935496866712
  0.3333330000000032  0.3333330000000032  0.5990935496866712
  0.6666669999999968  0.6666669999999968  0.5990935496866712
  0.6666669999999968  0.6666669999999968  0.4132359550441933
  0.3333330000000032  0.3333330000000032  0.4132359550441933
  0.0000000000000000  0.0000000000000000  0.4132359550441933
  0.6666669999999968  0.3333330000000032  0.6491308128905331
  0.0000000000000000  0.6666669999999968  0.6491308128905331
  0.6666669999999968  0.0000000000000000  0.5494322039039758
  0.3333330000000032  0.6666669999999968  0.5494322039039758
  0.0000000000000000  0.3333330000000032  0.5494322039039758
  0.3333330000000032  0.0000000000000000  0.6491308128905331
  0.6666669999999968  0.0000000000000000  0.4474493080047210
  0.3333330000000032  0.0000000000000000  0.3797071704699135
  0.6666669999999968  0.3333330000000032  0.3797071704699135
  0.0000000000000000  0.6666669999999968  0.3797071704699135
  0.3333330000000032  0.6666669999999968  0.4474493080047210
  0.0000000000000000  0.3333330000000032  0.4474493080047210
 
  0.00000000E+00  0.00000000E+00  0.00000000E+00
  0.00000000E+00  0.00000000E+00  0.00000000E+00
  0.00000000E+00  0.00000000E+00  0.00000000E+00
  0.00000000E+00  0.00000000E+00  0.00000000E+00
  0.00000000E+00  0.00000000E+00  0.00000000E+00
  0.00000000E+00  0.00000000E+00  0.00000000E+00
  0.00000000E+00  0.00000000E+00  0.00000000E+00
  0.00000000E+00  0.00000000E+00  0.00000000E+00
  0.00000000E+00  0.00000000E+00  0.00000000E+00
  0.00000000E+00  0.00000000E+00  0.00000000E+00
  0.00000000E+00  0.00000000E+00  0.00000000E+00
  0.00000000E+00  0.00000000E+00  0.00000000E+00
  0.00000000E+00  0.00000000E+00  0.00000000E+00
  0.00000000E+00  0.00000000E+00  0.00000000E+00
  0.00000000E+00  0.00000000E+00  0.00000000E+00
  0.00000000E+00  0.00000000E+00  0.00000000E+00
  0.00000000E+00  0.00000000E+00  0.00000000E+00
  0.00000000E+00  0.00000000E+00  0.00000000E+00
