Cr3 Pb3 Se6 O6                          
   1.00000000000000     
    -4.9506220000000001   -2.8582429999999999    0.0000000000000000
    -4.9506220000000001    2.8582429999999999    0.0000000000000000
     0.0000000000000000    0.0000000000000000  -30.0000000000000000
   Cr   Pb   Se   O 
     3     3     6     6
Direct
  0.6666669999999968  0.6666669999999968  0.4029491352161969
  0.3333330000000032  0.3333330000000032  0.4029491352161969
  0.0000000000000000  0.0000000000000000  0.4029491352161969
  0.0000000000000000  0.0000000000000000  0.5808346410391394
  0.3333330000000032  0.3333330000000032  0.5808346410391394
  0.6666669999999968  0.6666669999999968  0.5808346410391394
  0.0000000000000000  0.3333330000000032  0.4537545951568944
  0.6666669999999968  0.0000000000000000  0.3514363086270151
  0.3333330000000032  0.6666669999999968  0.3514363086270151
  0.0000000000000000  0.3333330000000032  0.3514363086270151
  0.6666669999999968  0.0000000000000000  0.4537545951568944
  0.3333330000000032  0.6666669999999968  0.4537545951568944
  0.6666669999999968  0.0000000000000000  0.6180789133495850
  0.3333330000000032  0.6666669999999968  0.6180789133495850
  0.0000000000000000  0.6666669999999968  0.5424444066111676
  0.6666669999999968  0.3333330000000032  0.5424444066111676
  0.3333330000000032  0.0000000000000000  0.5424444066111676
  0.0000000000000000  0.3333330000000032  0.6180789133495850
 
  0.00000000E+00  0.00000000E+00  0.00000000E+00
  0.00000000E+00  0.00000000E+00  0.00000000E+00
  0.00000000E+00  0.00000000E+00  0.00000000E+00
  0.00000000E+00  0.00000000E+00  0.00000000E+00
  0.00000000E+00  0.00000000E+00  0.00000000E+00
  0.00000000E+00  0.00000000E+00  0.00000000E+00
  0.00000000E+00  0.00000000E+00  0.00000000E+00
  0.00000000E+00  0.00000000E+00  0.00000000E+00
  0.00000000E+00  0.00000000E+00  0.00000000E+00
  0.00000000E+00  0.00000000E+00  0.00000000E+00
  0.00000000E+00  0.00000000E+00  0.00000000E+00
  0.00000000E+00  0.00000000E+00  0.00000000E+00
  0.00000000E+00  0.00000000E+00  0.00000000E+00
  0.00000000E+00  0.00000000E+00  0.00000000E+00
  0.00000000E+00  0.00000000E+00  0.00000000E+00
  0.00000000E+00  0.00000000E+00  0.00000000E+00
  0.00000000E+00  0.00000000E+00  0.00000000E+00
  0.00000000E+00  0.00000000E+00  0.00000000E+00
