Te14 Mo4 Pt3                            
   1.00000000000000     
    -3.5126819999999999   -6.0841440000000002    0.0000000000000000
    -7.0253639999999997    0.0000000000000000    0.0000000000000000
     0.0000000000000000    0.0000000000000000  -30.0000000000000000
   Te   Mo   Pt
    14     4     3
Direct
  0.6666669999999968  0.6666669999999968  0.4423747885929430
  0.1631874575187382  0.6664953236451794  0.4418189965617074
  0.1703182188360586  0.1631874575187382  0.4418189965617074
  0.9947342941704633  0.3393575092017045  0.5590396121827510
  0.3393575092017045  0.6659081966278393  0.5590396121827510
  0.6659081966278393  0.9947342941704633  0.5590396121827510
  0.3290712182199940  0.0037259611613081  0.6502039624751035
  0.6672028206186980  0.3290712182199940  0.6502039624751035
  0.0037259611613081  0.6672028206186980  0.6502039624751035
  0.6666669999999968  0.6666669999999968  0.3210146556803721
  0.6664953236451794  0.1703182188360586  0.4418189965617074
  0.6665381604517790  0.1684815170477592  0.3211033256915599
  0.1649813225004451  0.6665381604517790  0.3211033256915599
  0.1684815170477592  0.1649813225004451  0.3211033256915599
  0.9994199973026596  0.4979892844092859  0.3815449876371275
  0.5025907182880474  0.9994199973026596  0.3815449876371275
  0.0000000000000000  0.0000000000000000  0.3815027259496375
  0.4979892844092859  0.5025907182880474  0.3815449876371275
  0.6666669999999968  0.6666669999999968  0.6059786840327774
  0.3333330000000032  0.3333330000000032  0.6037595438306909
  0.0000000000000000  0.0000000000000000  0.6033639482688429
 
  0.00000000E+00  0.00000000E+00  0.00000000E+00
  0.00000000E+00  0.00000000E+00  0.00000000E+00
  0.00000000E+00  0.00000000E+00  0.00000000E+00
  0.00000000E+00  0.00000000E+00  0.00000000E+00
  0.00000000E+00  0.00000000E+00  0.00000000E+00
  0.00000000E+00  0.00000000E+00  0.00000000E+00
  0.00000000E+00  0.00000000E+00  0.00000000E+00
  0.00000000E+00  0.00000000E+00  0.00000000E+00
  0.00000000E+00  0.00000000E+00  0.00000000E+00
  0.00000000E+00  0.00000000E+00  0.00000000E+00
  0.00000000E+00  0.00000000E+00  0.00000000E+00
  0.00000000E+00  0.00000000E+00  0.00000000E+00
  0.00000000E+00  0.00000000E+00  0.00000000E+00
  0.00000000E+00  0.00000000E+00  0.00000000E+00
  0.00000000E+00  0.00000000E+00  0.00000000E+00
  0.00000000E+00  0.00000000E+00  0.00000000E+00
  0.00000000E+00  0.00000000E+00  0.00000000E+00
  0.00000000E+00  0.00000000E+00  0.00000000E+00
  0.00000000E+00  0.00000000E+00  0.00000000E+00
  0.00000000E+00  0.00000000E+00  0.00000000E+00
  0.00000000E+00  0.00000000E+00  0.00000000E+00
