Hf3 Pd3 S12                             
   1.00000000000000     
    -5.3223360000000000   -3.0728520000000001    0.0000000000000000
    -5.3223360000000000    3.0728520000000001    0.0000000000000000
     0.0000000000000000    0.0000000000000000  -30.0000000000000000
   Hf   Pd   S 
     3     3    12
Direct
  0.6666669999999968  0.6666669999999968  0.4017821801269719
  0.3333330000000032  0.3333330000000032  0.4017821801269719
  0.0000000000000000  0.0000000000000000  0.4017821801269719
  0.0000000000000000  0.0000000000000000  0.5872747978973010
  0.3333330000000032  0.3333330000000032  0.5872747978973010
  0.6666669999999968  0.6666669999999968  0.5872747978973010
  0.0000000000000000  0.3333330000000032  0.4535016440504407
  0.6666669999999968  0.0000000000000000  0.3498019390028588
  0.3333330000000032  0.6666669999999968  0.3498019390028588
  0.0000000000000000  0.3333330000000032  0.3498019390028588
  0.0000000000000000  0.3333330000000032  0.6287594176919100
  0.6666669999999968  0.0000000000000000  0.6287594176919100
  0.3333330000000032  0.6666669999999968  0.6287594176919100
  0.0000000000000000  0.6666669999999968  0.5464640212305127
  0.6666669999999968  0.3333330000000032  0.5464640212305127
  0.3333330000000032  0.0000000000000000  0.5464640212305127
  0.3333330000000032  0.6666669999999968  0.4535016440504407
  0.6666669999999968  0.0000000000000000  0.4535016440504407
 
  0.00000000E+00  0.00000000E+00  0.00000000E+00
  0.00000000E+00  0.00000000E+00  0.00000000E+00
  0.00000000E+00  0.00000000E+00  0.00000000E+00
  0.00000000E+00  0.00000000E+00  0.00000000E+00
  0.00000000E+00  0.00000000E+00  0.00000000E+00
  0.00000000E+00  0.00000000E+00  0.00000000E+00
  0.00000000E+00  0.00000000E+00  0.00000000E+00
  0.00000000E+00  0.00000000E+00  0.00000000E+00
  0.00000000E+00  0.00000000E+00  0.00000000E+00
  0.00000000E+00  0.00000000E+00  0.00000000E+00
  0.00000000E+00  0.00000000E+00  0.00000000E+00
  0.00000000E+00  0.00000000E+00  0.00000000E+00
  0.00000000E+00  0.00000000E+00  0.00000000E+00
  0.00000000E+00  0.00000000E+00  0.00000000E+00
  0.00000000E+00  0.00000000E+00  0.00000000E+00
  0.00000000E+00  0.00000000E+00  0.00000000E+00
  0.00000000E+00  0.00000000E+00  0.00000000E+00
  0.00000000E+00  0.00000000E+00  0.00000000E+00
