name                                    
   1.00000000000000     
     3.2149375000000000    0.0000000000000000    0.0000000000000000
    -1.6074687500000000    2.7842175465999999    0.0000000000000000
     0.0000000000000000    0.0000000000000000   25.0000000000000000
   W    S 
     1     2
Direct
  0.0000000000000000 -0.0000000000000000  0.5000000000000000
  0.6666666667000030  0.3333333332999970  0.4376666722965746
  0.6666666667000030  0.3333333332999970  0.5623333277034254
 
  0.00000000E+00  0.00000000E+00  0.00000000E+00
  0.00000000E+00  0.00000000E+00  0.00000000E+00
  0.00000000E+00  0.00000000E+00  0.00000000E+00
