name                                    
   1.00000000000000     
     3.0412625735000001    0.0000000000000000    0.0000000000000000
    -1.5206312868000000    2.6338106482999999    0.0000000000000000
     0.0000000000000000    0.0000000000000000   25.0000000000000000
   Cr   S 
     1     2
Direct
  0.0000000000000000  0.0000000000000000  0.5000000000000000
  0.6666666667000030  0.3333333332999970  0.4412489056342249
  0.6666666667000030  0.3333333332999970  0.5587510943657751
 
  0.00000000E+00  0.00000000E+00  0.00000000E+00
  0.00000000E+00  0.00000000E+00  0.00000000E+00
  0.00000000E+00  0.00000000E+00  0.00000000E+00
