name                                    
   1.00000000000000     
     3.4362179065000000    0.0000000000000000    0.0000000000000000
    -1.7181089533000000    2.9758520000000002    0.0000000000000000
     0.0000000000000000    0.0000000000000000   25.0000000000000000
   Pd   S 
     1     2
Direct
  0.0000000000000000  0.0000000000000000  0.5000000000000000
  0.6666666667000030  0.3333333332999970  0.4477254990873132
  0.3333333332999970  0.6666666667000030  0.5522745009126868
 
  0.00000000E+00  0.00000000E+00  0.00000000E+00
  0.00000000E+00  0.00000000E+00  0.00000000E+00
  0.00000000E+00  0.00000000E+00  0.00000000E+00
