name                                    
   1.00000000000000     
     3.1589876897000000    0.0000000000000000    0.0000000000000000
    -1.5794938449000000    2.7357635895999999    0.0000000000000000
     0.0000000000000000    0.0000000000000000   25.0000000000000000
   Sn   O 
     1     2
Direct
  0.0000000000000000  0.0000000000000000  0.5000000000000000
  0.6666666667000030  0.3333333332999970  0.4581902438312326
  0.3333333332999970  0.6666666667000030  0.5418097561687674
 
  0.00000000E+00  0.00000000E+00  0.00000000E+00
  0.00000000E+00  0.00000000E+00  0.00000000E+00
  0.00000000E+00  0.00000000E+00  0.00000000E+00
