Ti3 Pd3 O12                             
   1.00000000000000     
    -4.5598409999999996   -2.6326260000000001    0.0000000000000000
    -4.5598409999999996    2.6326260000000001    0.0000000000000000
     0.0000000000000000    0.0000000000000000  -30.0000000000000000
   Ti   Pd   O 
     3     3    12
Direct
  0.6666669999999968  0.6666669999999968  0.4193700065320911
  0.3333330000000032  0.3333330000000032  0.4193700065320911
  0.0000000000000000  0.0000000000000000  0.4193700065320911
  0.0000000000000000  0.0000000000000000  0.5808918868947401
  0.3333330000000032  0.3333330000000032  0.5808918868947401
  0.6666669999999968  0.6666669999999968  0.5808918868947401
  0.3333330000000032  0.0000000000000000  0.4511894180957725
  0.6666669999999968  0.0000000000000000  0.3874082156746894
  0.3333330000000032  0.6666669999999968  0.3874082156746894
  0.0000000000000000  0.3333330000000032  0.3874082156746894
  0.0000000000000000  0.3333330000000032  0.6142209438404649
  0.6666669999999968  0.0000000000000000  0.6142209438404649
  0.3333330000000032  0.6666669999999968  0.6142209438404649
  0.0000000000000000  0.6666669999999968  0.5476905289622422
  0.6666669999999968  0.3333330000000032  0.5476905289622422
  0.3333330000000032  0.0000000000000000  0.5476905289622422
  0.6666669999999968  0.3333330000000032  0.4511894180957725
  0.0000000000000000  0.6666669999999968  0.4511894180957725
 
  0.00000000E+00  0.00000000E+00  0.00000000E+00
  0.00000000E+00  0.00000000E+00  0.00000000E+00
  0.00000000E+00  0.00000000E+00  0.00000000E+00
  0.00000000E+00  0.00000000E+00  0.00000000E+00
  0.00000000E+00  0.00000000E+00  0.00000000E+00
  0.00000000E+00  0.00000000E+00  0.00000000E+00
  0.00000000E+00  0.00000000E+00  0.00000000E+00
  0.00000000E+00  0.00000000E+00  0.00000000E+00
  0.00000000E+00  0.00000000E+00  0.00000000E+00
  0.00000000E+00  0.00000000E+00  0.00000000E+00
  0.00000000E+00  0.00000000E+00  0.00000000E+00
  0.00000000E+00  0.00000000E+00  0.00000000E+00
  0.00000000E+00  0.00000000E+00  0.00000000E+00
  0.00000000E+00  0.00000000E+00  0.00000000E+00
  0.00000000E+00  0.00000000E+00  0.00000000E+00
  0.00000000E+00  0.00000000E+00  0.00000000E+00
  0.00000000E+00  0.00000000E+00  0.00000000E+00
  0.00000000E+00  0.00000000E+00  0.00000000E+00
