name                                    
   1.00000000000000     
     4.0224631897999998    0.0000000000000000    0.0000000000000000
    -2.0112315948999999    3.4835553082000001    0.0000000000000000
     0.0000000000000000    0.0000000000000000   25.0000000000000000
   Pt   Te
     1     2
Direct
  0.0000000000000000  0.0000000000000000  0.5000000000000000
  0.6666666667000030  0.3333333332999970  0.4444288954506104
  0.3333333332999970  0.6666666667000030  0.5555711045493896
 
  0.00000000E+00  0.00000000E+00  0.00000000E+00
  0.00000000E+00  0.00000000E+00  0.00000000E+00
  0.00000000E+00  0.00000000E+00  0.00000000E+00
