Cr6 Se6 S6                              
   1.00000000000000     
     0.0000000000000000   -5.4176270000000004    0.0000000000000000
    -4.6918020000000000   -2.7088130000000001    0.0000000000000000
     0.0000000000000000    0.0000000000000000  -30.0000000000000000
   Cr   Se   S 
     6     6     6
Direct
  0.0000000000000000  0.0000000000000000  0.6037813999325863
  0.3333330000000032  0.3333330000000032  0.6037813999325863
  0.6666669999999968  0.6666669999999968  0.6037813999325863
  0.6666669999999968  0.6666669999999968  0.3928960234144583
  0.3333330000000032  0.3333330000000032  0.3928960234144583
  0.0000000000000000  0.0000000000000000  0.3928960234144583
  0.0000000000000000  0.3333330000000032  0.4458660194585988
  0.6666669999999968  0.0000000000000000  0.3398142249997917
  0.3333330000000032  0.6666669999999968  0.3398142249997917
  0.0000000000000000  0.3333330000000032  0.3398142249997917
  0.6666669999999968  0.0000000000000000  0.4458660194585988
  0.3333330000000032  0.6666669999999968  0.4458660194585988
  0.6666669999999968  0.3333330000000032  0.6519032836036089
  0.3333330000000032  0.0000000000000000  0.6519032836036089
  0.0000000000000000  0.6666669999999968  0.5557970485909536
  0.6666669999999968  0.3333330000000032  0.5557970485909536
  0.3333330000000032  0.0000000000000000  0.5557970485909536
  0.0000000000000000  0.6666669999999968  0.6519032836036089
