Ti1 Te2 Mo1 S2                          
   1.00000000000000     
    -1.7406159999999999   -3.0148350000000002    0.0000000000000000
    -3.4812319999999999    0.0000000000000000    0.0000000000000000
     0.0000000000000000    0.0000000000000000  -30.0000000000000000
   Ti   Te   Mo   S 
     1     2     1     2
Direct
  0.0000000000000000  0.0000000000000000  0.6086858859086988
  0.3333330000000032  0.3333330000000032  0.3175923028746297
  0.3333330000000032  0.3333330000000032  0.4393945326446129
  0.0000000000000000  0.0000000000000000  0.3784842541637019
  0.3333330000000032  0.3333330000000032  0.5624364215462521
  0.6666669999999968  0.6666669999999968  0.6550276028621127
 
  0.00000000E+00  0.00000000E+00  0.00000000E+00
  0.00000000E+00  0.00000000E+00  0.00000000E+00
  0.00000000E+00  0.00000000E+00  0.00000000E+00
  0.00000000E+00  0.00000000E+00  0.00000000E+00
  0.00000000E+00  0.00000000E+00  0.00000000E+00
  0.00000000E+00  0.00000000E+00  0.00000000E+00
