name                                    
   1.00000000000000     
     2.8841110527999998    0.0000000000000000    0.0000000000000000
    -1.4420555263999999    2.4977134390000000    0.0000000000000000
     0.0000000000000000    0.0000000000000000   25.0000000000000000
   Ge   O 
     1     2
Direct
  0.0000000000000000  0.0000000000000000  0.5000000000000000
  0.6666666667000030  0.3333333332999970  0.4601850750460201
  0.3333333332999970  0.6666666667000030  0.5398149249539799
 
  0.00000000E+00  0.00000000E+00  0.00000000E+00
  0.00000000E+00  0.00000000E+00  0.00000000E+00
  0.00000000E+00  0.00000000E+00  0.00000000E+00
