Cr3 Ni3 Te6 Se6                         
   1.00000000000000     
     0.0000000000000000   -6.0721689999999997    0.0000000000000000
    -5.2586529999999998   -3.0360849999999999    0.0000000000000000
     0.0000000000000000    0.0000000000000000  -30.0000000000000000
   Cr   Ni   Te   Se
     3     3     6     6
Direct
  0.6666669999999968  0.6666669999999968  0.3996314842503779
  0.3333330000000032  0.3333330000000032  0.3996314842503779
  0.0000000000000000  0.0000000000000000  0.3996314842503779
  0.0000000000000000  0.0000000000000000  0.5847335357565413
  0.3333330000000032  0.3333330000000032  0.5847335357565413
  0.6666669999999968  0.6666669999999968  0.5847335357565413
  0.3333330000000032  0.0000000000000000  0.4552119438235067
  0.0000000000000000  0.6666669999999968  0.3427690970453767
  0.6666669999999968  0.3333330000000032  0.3427690970453767
  0.3333330000000032  0.0000000000000000  0.3427690970453767
  0.0000000000000000  0.6666669999999968  0.4552119438235067
  0.6666669999999968  0.3333330000000032  0.4552119438235067
  0.6666669999999968  0.3333330000000032  0.6275595375767651
  0.3333330000000032  0.0000000000000000  0.6275595375767651
  0.6666669999999968  0.0000000000000000  0.5440514015474278
  0.3333330000000032  0.6666669999999968  0.5440514015474278
  0.0000000000000000  0.3333330000000032  0.5440514015474278
  0.0000000000000000  0.6666669999999968  0.6275595375767651
 
  0.00000000E+00  0.00000000E+00  0.00000000E+00
  0.00000000E+00  0.00000000E+00  0.00000000E+00
  0.00000000E+00  0.00000000E+00  0.00000000E+00
  0.00000000E+00  0.00000000E+00  0.00000000E+00
  0.00000000E+00  0.00000000E+00  0.00000000E+00
  0.00000000E+00  0.00000000E+00  0.00000000E+00
  0.00000000E+00  0.00000000E+00  0.00000000E+00
  0.00000000E+00  0.00000000E+00  0.00000000E+00
  0.00000000E+00  0.00000000E+00  0.00000000E+00
  0.00000000E+00  0.00000000E+00  0.00000000E+00
  0.00000000E+00  0.00000000E+00  0.00000000E+00
  0.00000000E+00  0.00000000E+00  0.00000000E+00
  0.00000000E+00  0.00000000E+00  0.00000000E+00
  0.00000000E+00  0.00000000E+00  0.00000000E+00
  0.00000000E+00  0.00000000E+00  0.00000000E+00
  0.00000000E+00  0.00000000E+00  0.00000000E+00
  0.00000000E+00  0.00000000E+00  0.00000000E+00
  0.00000000E+00  0.00000000E+00  0.00000000E+00
