Mo6 Se6 S6                              
   1.00000000000000     
    -4.8778610000000002   -2.8162349999999998    0.0000000000000000
    -4.8778610000000002    2.8162349999999998    0.0000000000000000
     0.0000000000000000    0.0000000000000000  -30.0000000000000000
   Mo   Se   S 
     6     6     6
Direct
  0.0000000000000000  0.0000000000000000  0.6049596349537509
  0.3333330000000032  0.3333330000000032  0.6049596349537509
  0.6666669999999968  0.6666669999999968  0.6049596349537509
  0.6666669999999968  0.6666669999999968  0.3915223639637873
  0.3333330000000032  0.3333330000000032  0.3915223639637873
  0.0000000000000000  0.0000000000000000  0.3915223639637873
  0.3333330000000032  0.0000000000000000  0.4477528652575060
  0.0000000000000000  0.6666669999999968  0.3351597253203309
  0.6666669999999968  0.3333330000000032  0.3351597253203309
  0.3333330000000032  0.0000000000000000  0.3351597253203309
  0.0000000000000000  0.6666669999999968  0.4477528652575060
  0.6666669999999968  0.3333330000000032  0.4477528652575060
  0.3333330000000032  0.6666669999999968  0.6562842308695025
  0.0000000000000000  0.3333330000000032  0.6562842308695025
  0.6666669999999968  0.0000000000000000  0.5537731796351295
  0.3333330000000032  0.6666669999999968  0.5537731796351295
  0.0000000000000000  0.3333330000000032  0.5537731796351295
  0.6666669999999968  0.0000000000000000  0.6562842308695025
 
  0.00000000E+00  0.00000000E+00  0.00000000E+00
  0.00000000E+00  0.00000000E+00  0.00000000E+00
  0.00000000E+00  0.00000000E+00  0.00000000E+00
  0.00000000E+00  0.00000000E+00  0.00000000E+00
  0.00000000E+00  0.00000000E+00  0.00000000E+00
  0.00000000E+00  0.00000000E+00  0.00000000E+00
  0.00000000E+00  0.00000000E+00  0.00000000E+00
  0.00000000E+00  0.00000000E+00  0.00000000E+00
  0.00000000E+00  0.00000000E+00  0.00000000E+00
  0.00000000E+00  0.00000000E+00  0.00000000E+00
  0.00000000E+00  0.00000000E+00  0.00000000E+00
  0.00000000E+00  0.00000000E+00  0.00000000E+00
  0.00000000E+00  0.00000000E+00  0.00000000E+00
  0.00000000E+00  0.00000000E+00  0.00000000E+00
  0.00000000E+00  0.00000000E+00  0.00000000E+00
  0.00000000E+00  0.00000000E+00  0.00000000E+00
  0.00000000E+00  0.00000000E+00  0.00000000E+00
  0.00000000E+00  0.00000000E+00  0.00000000E+00
