Zr1 Cr1 Te2 S2                          
   1.00000000000000     
    -1.7603949999999999   -3.0490940000000002    0.0000000000000000
    -3.5207910000000000    0.0000000000000000    0.0000000000000000
     0.0000000000000000    0.0000000000000000  -30.0000000000000000
   Zr   Cr   Te   S 
     1     1     2     2
Direct
  0.0000000000000000  0.0000000000000000  0.3856600584943806
  0.0000000000000000  0.0000000000000000  0.6188374412721060
  0.3333330000000032  0.3333330000000032  0.5625986975839012
  0.3333330000000032  0.3333330000000032  0.6750894315766729
  0.3333330000000032  0.3333330000000032  0.3328979062554964
  0.3333330000000032  0.3333330000000032  0.4385324648174560
 
  0.00000000E+00  0.00000000E+00  0.00000000E+00
  0.00000000E+00  0.00000000E+00  0.00000000E+00
  0.00000000E+00  0.00000000E+00  0.00000000E+00
  0.00000000E+00  0.00000000E+00  0.00000000E+00
  0.00000000E+00  0.00000000E+00  0.00000000E+00
  0.00000000E+00  0.00000000E+00  0.00000000E+00
