name                                    
   1.00000000000000     
     3.2599166222000000    0.0000000000000000    0.0000000000000000
    -1.6299583111000000    2.8231706091000000    0.0000000000000000
     0.0000000000000000    0.0000000000000000   25.0000000000000000
   W    Se
     1     2
Direct
  0.0000000000000000 -0.0000000000000000  0.5000000000000000
  0.6666666667000030  0.3333333332999970  0.4321642975752721
  0.6666666667000030  0.3333333332999970  0.5678357024247279
 
  0.00000000E+00  0.00000000E+00  0.00000000E+00
  0.00000000E+00  0.00000000E+00  0.00000000E+00
  0.00000000E+00  0.00000000E+00  0.00000000E+00
