name                                    
   1.00000000000000     
     3.3328000297000000    0.0000000000000000    0.0000000000000000
    -1.6664000148000000    2.8862894913999999    0.0000000000000000
     0.0000000000000000    0.0000000000000000   25.0000000000000000
   Mo   Se
     1     2
Direct
 -0.0000000000000000  0.0000000000000000  0.5000000000000000
  0.6666666667000030  0.3333333332999970  0.4334665256005008
  0.6666666667000030  0.3333333332999970  0.5665334743994992
 
  0.00000000E+00  0.00000000E+00  0.00000000E+00
  0.00000000E+00  0.00000000E+00  0.00000000E+00
  0.00000000E+00  0.00000000E+00  0.00000000E+00
