Hf3 Cr3 Se6 O6                          
   1.00000000000000     
    -4.8459700000000003   -2.7978220000000000    0.0000000000000000
    -4.8459700000000003    2.7978220000000000    0.0000000000000000
     0.0000000000000000    0.0000000000000000  -30.0000000000000000
   Hf   Cr   Se   O 
     3     3     6     6
Direct
  0.0000000000000000  0.0000000000000000  0.5830577394658150
  0.3333330000000032  0.3333330000000032  0.5830577394658150
  0.6666669999999968  0.6666669999999968  0.5830577394658150
  0.6666669999999968  0.6666669999999968  0.3969497684712167
  0.3333330000000032  0.3333330000000032  0.3969497684712167
  0.0000000000000000  0.0000000000000000  0.3969497684712167
  0.0000000000000000  0.3333330000000032  0.4488232667932337
  0.6666669999999968  0.0000000000000000  0.3449223644921346
  0.3333330000000032  0.6666669999999968  0.3449223644921346
  0.0000000000000000  0.3333330000000032  0.3449223644921346
  0.6666669999999968  0.0000000000000000  0.4488232667932337
  0.3333330000000032  0.6666669999999968  0.4488232667932337
  0.6666669999999968  0.0000000000000000  0.6154313908302811
  0.3333330000000032  0.6666669999999968  0.6154313908302811
  0.0000000000000000  0.6666669999999968  0.5508094699473176
  0.6666669999999968  0.3333330000000032  0.5508094699473176
  0.3333330000000032  0.0000000000000000  0.5508094699473176
  0.0000000000000000  0.3333330000000032  0.6154313908302811
 
  0.00000000E+00  0.00000000E+00  0.00000000E+00
  0.00000000E+00  0.00000000E+00  0.00000000E+00
  0.00000000E+00  0.00000000E+00  0.00000000E+00
  0.00000000E+00  0.00000000E+00  0.00000000E+00
  0.00000000E+00  0.00000000E+00  0.00000000E+00
  0.00000000E+00  0.00000000E+00  0.00000000E+00
  0.00000000E+00  0.00000000E+00  0.00000000E+00
  0.00000000E+00  0.00000000E+00  0.00000000E+00
  0.00000000E+00  0.00000000E+00  0.00000000E+00
  0.00000000E+00  0.00000000E+00  0.00000000E+00
  0.00000000E+00  0.00000000E+00  0.00000000E+00
  0.00000000E+00  0.00000000E+00  0.00000000E+00
  0.00000000E+00  0.00000000E+00  0.00000000E+00
  0.00000000E+00  0.00000000E+00  0.00000000E+00
  0.00000000E+00  0.00000000E+00  0.00000000E+00
  0.00000000E+00  0.00000000E+00  0.00000000E+00
  0.00000000E+00  0.00000000E+00  0.00000000E+00
  0.00000000E+00  0.00000000E+00  0.00000000E+00
