Cr3 Sn3 Te6 O6                          
   1.00000000000000     
     0.0000000000000000   -5.7972469999999996    0.0000000000000000
    -5.0205630000000001   -2.8986230000000002    0.0000000000000000
     0.0000000000000000    0.0000000000000000  -30.0000000000000000
   Cr   Sn   Te   O 
     3     3     6     6
Direct
  0.6666669999999968  0.6666669999999968  0.3919738252170575
  0.3333330000000032  0.3333330000000032  0.3919738252170575
  0.0000000000000000  0.0000000000000000  0.3919738252170575
  0.0000000000000000  0.0000000000000000  0.5849547517955216
  0.3333330000000032  0.3333330000000032  0.5849547517955216
  0.6666669999999968  0.6666669999999968  0.5849547517955216
  0.0000000000000000  0.3333330000000032  0.4499642665227555
  0.6666669999999968  0.0000000000000000  0.3338097275166874
  0.3333330000000032  0.6666669999999968  0.3338097275166874
  0.0000000000000000  0.3333330000000032  0.3338097275166874
  0.6666669999999968  0.0000000000000000  0.4499642665227555
  0.3333330000000032  0.6666669999999968  0.4499642665227555
  0.6666669999999968  0.0000000000000000  0.6166283777455632
  0.3333330000000032  0.6666669999999968  0.6166283777455632
  0.0000000000000000  0.6666669999999968  0.5522690512024155
  0.6666669999999968  0.3333330000000032  0.5522690512024155
  0.3333330000000032  0.0000000000000000  0.5522690512024155
  0.0000000000000000  0.3333330000000032  0.6166283777455632
 
  0.00000000E+00  0.00000000E+00  0.00000000E+00
  0.00000000E+00  0.00000000E+00  0.00000000E+00
  0.00000000E+00  0.00000000E+00  0.00000000E+00
  0.00000000E+00  0.00000000E+00  0.00000000E+00
  0.00000000E+00  0.00000000E+00  0.00000000E+00
  0.00000000E+00  0.00000000E+00  0.00000000E+00
  0.00000000E+00  0.00000000E+00  0.00000000E+00
  0.00000000E+00  0.00000000E+00  0.00000000E+00
  0.00000000E+00  0.00000000E+00  0.00000000E+00
  0.00000000E+00  0.00000000E+00  0.00000000E+00
  0.00000000E+00  0.00000000E+00  0.00000000E+00
  0.00000000E+00  0.00000000E+00  0.00000000E+00
  0.00000000E+00  0.00000000E+00  0.00000000E+00
  0.00000000E+00  0.00000000E+00  0.00000000E+00
  0.00000000E+00  0.00000000E+00  0.00000000E+00
  0.00000000E+00  0.00000000E+00  0.00000000E+00
  0.00000000E+00  0.00000000E+00  0.00000000E+00
  0.00000000E+00  0.00000000E+00  0.00000000E+00
