name                                    
   1.00000000000000     
     3.5898354504999999    0.0000000000000000    0.0000000000000000
    -1.7949177252999999    3.1088886956000001    0.0000000000000000
     0.0000000000000000    0.0000000000000000   25.0000000000000000
   Ge   S 
     1     2
Direct
  0.0000000000000000  0.0000000000000000  0.5000000000000000
  0.6666666667000030  0.3333333332999970  0.4454886565371663
  0.3333333332999970  0.6666666667000030  0.5545113434628337
 
  0.00000000E+00  0.00000000E+00  0.00000000E+00
  0.00000000E+00  0.00000000E+00  0.00000000E+00
  0.00000000E+00  0.00000000E+00  0.00000000E+00
