Hf3 Ni3 S12                             
   1.00000000000000     
    -5.2536240000000003   -3.0331809999999999    0.0000000000000000
    -5.2536240000000003    3.0331809999999999    0.0000000000000000
     0.0000000000000000    0.0000000000000000  -30.0000000000000000
   Hf   Ni   S 
     3     3    12
Direct
  0.0000000000000000  0.0000000000000000  0.6040764734140112
  0.3333330000000032  0.3333330000000032  0.6040764734140112
  0.6666669999999968  0.6666669999999968  0.6040764734140112
  0.6666669999999968  0.6666669999999968  0.4050800796411025
  0.3333330000000032  0.3333330000000032  0.4050800796411025
  0.0000000000000000  0.0000000000000000  0.4050800796411025
  0.3333330000000032  0.0000000000000000  0.4414342182048046
  0.6666669999999968  0.0000000000000000  0.3684320011602082
  0.3333330000000032  0.6666669999999968  0.3684320011602082
  0.0000000000000000  0.3333330000000032  0.3684320011602082
  0.0000000000000000  0.3333330000000032  0.6543069463420323
  0.6666669999999968  0.0000000000000000  0.6543069463420323
  0.3333330000000032  0.6666669999999968  0.6543069463420323
  0.0000000000000000  0.6666669999999968  0.5540342812378469
  0.6666669999999968  0.3333330000000032  0.5540342812378469
  0.3333330000000032  0.0000000000000000  0.5540342812378469
  0.6666669999999968  0.3333330000000032  0.4414342182048046
  0.0000000000000000  0.6666669999999968  0.4414342182048046
 
  0.00000000E+00  0.00000000E+00  0.00000000E+00
  0.00000000E+00  0.00000000E+00  0.00000000E+00
  0.00000000E+00  0.00000000E+00  0.00000000E+00
  0.00000000E+00  0.00000000E+00  0.00000000E+00
  0.00000000E+00  0.00000000E+00  0.00000000E+00
  0.00000000E+00  0.00000000E+00  0.00000000E+00
  0.00000000E+00  0.00000000E+00  0.00000000E+00
  0.00000000E+00  0.00000000E+00  0.00000000E+00
  0.00000000E+00  0.00000000E+00  0.00000000E+00
  0.00000000E+00  0.00000000E+00  0.00000000E+00
  0.00000000E+00  0.00000000E+00  0.00000000E+00
  0.00000000E+00  0.00000000E+00  0.00000000E+00
  0.00000000E+00  0.00000000E+00  0.00000000E+00
  0.00000000E+00  0.00000000E+00  0.00000000E+00
  0.00000000E+00  0.00000000E+00  0.00000000E+00
  0.00000000E+00  0.00000000E+00  0.00000000E+00
  0.00000000E+00  0.00000000E+00  0.00000000E+00
  0.00000000E+00  0.00000000E+00  0.00000000E+00
