W6 Se6 S6                               
   1.00000000000000     
    -4.8787089999999997   -2.8167239999999998    0.0000000000000000
    -4.8787089999999997    2.8167239999999998    0.0000000000000000
     0.0000000000000000    0.0000000000000000  -30.0000000000000000
   W    Se   S 
     6     6     6
Direct
  0.0000000000000000  0.0000000000000000  0.6052414939301229
  0.3333330000000032  0.3333330000000032  0.6052414939301229
  0.6666669999999968  0.6666669999999968  0.6052414939301229
  0.6666669999999968  0.6666669999999968  0.3911924006323133
  0.3333330000000032  0.3333330000000032  0.3911924006323133
  0.0000000000000000  0.0000000000000000  0.3911924006323133
  0.3333330000000032  0.0000000000000000  0.4477325944645401
  0.0000000000000000  0.6666669999999968  0.3345363159795625
  0.6666669999999968  0.3333330000000032  0.3345363159795625
  0.3333330000000032  0.0000000000000000  0.3345363159795625
  0.0000000000000000  0.6666669999999968  0.4477325944645401
  0.6666669999999968  0.3333330000000032  0.4477325944645401
  0.3333330000000032  0.6666669999999968  0.6567479846441273
  0.0000000000000000  0.3333330000000032  0.6567479846441273
  0.6666669999999968  0.0000000000000000  0.5539052103493276
  0.3333330000000032  0.6666669999999968  0.5539052103493276
  0.0000000000000000  0.3333330000000032  0.5539052103493276
  0.6666669999999968  0.0000000000000000  0.6567479846441273
 
  0.00000000E+00  0.00000000E+00  0.00000000E+00
  0.00000000E+00  0.00000000E+00  0.00000000E+00
  0.00000000E+00  0.00000000E+00  0.00000000E+00
  0.00000000E+00  0.00000000E+00  0.00000000E+00
  0.00000000E+00  0.00000000E+00  0.00000000E+00
  0.00000000E+00  0.00000000E+00  0.00000000E+00
  0.00000000E+00  0.00000000E+00  0.00000000E+00
  0.00000000E+00  0.00000000E+00  0.00000000E+00
  0.00000000E+00  0.00000000E+00  0.00000000E+00
  0.00000000E+00  0.00000000E+00  0.00000000E+00
  0.00000000E+00  0.00000000E+00  0.00000000E+00
  0.00000000E+00  0.00000000E+00  0.00000000E+00
  0.00000000E+00  0.00000000E+00  0.00000000E+00
  0.00000000E+00  0.00000000E+00  0.00000000E+00
  0.00000000E+00  0.00000000E+00  0.00000000E+00
  0.00000000E+00  0.00000000E+00  0.00000000E+00
  0.00000000E+00  0.00000000E+00  0.00000000E+00
  0.00000000E+00  0.00000000E+00  0.00000000E+00
