name                                    
   1.00000000000000     
     3.3515928431000002    0.0000000000000000    0.0000000000000000
    -1.6757964216000001    2.9025645453000002    0.0000000000000000
     0.0000000000000000    0.0000000000000000   25.0000000000000000
   Sn   O 
     1     2
Direct
 -0.0000000000000000  0.0000000000000000  0.5000000000000000
  0.6666666667000030  0.3333333332999970  0.4617069446124918
  0.3333333332999970  0.6666666667000030  0.5382930553875082
 
  0.00000000E+00  0.00000000E+00  0.00000000E+00
  0.00000000E+00  0.00000000E+00  0.00000000E+00
  0.00000000E+00  0.00000000E+00  0.00000000E+00
