Hf4 Pd3 Se6 O8                          
   1.00000000000000     
    -3.2411379999999999   -5.6138149999999998    0.0000000000000000
    -6.4822749999999996    0.0000000000000000    0.0000000000000000
     0.0000000000000000    0.0000000000000000  -30.0000000000000000
   Hf   Pd   Se   O 
     4     3     6     8
Direct
  0.0000000000000000  0.0000000000000000  0.5851830749745730
  0.9998063872428276  0.5001665266281066  0.5845011484137430
  0.5000270861290588  0.9998063872428276  0.5845011484137430
  0.5001665266281066  0.5000270861290588  0.5845011484137430
  0.6666669999999968  0.6666669999999968  0.4051863886842213
  0.3333330000000032  0.3333330000000032  0.4063209372434002
  0.0000000000000000  0.0000000000000000  0.4065472135574808
  0.3372994452825893  0.9966943328815319  0.4492591031815891
  0.6672166891443325  0.0023995142446083  0.3624614269873092
  0.3303837966110521  0.6672166891443325  0.3624614269873092
  0.0023995142446083  0.3303837966110521  0.3624614269873092
  0.9966943328815319  0.6660062218358718  0.4492591031815891
  0.6660062218358718  0.3372994452825893  0.4492591031815891
  0.3333330000000032  0.3333330000000032  0.6166406969107854
  0.3343226902962044  0.8328240739335868  0.6169496080156662
  0.6666669999999968  0.6666669999999968  0.5523235086965457
  0.6677574514222258  0.1652539280065142  0.5527137733793523
  0.1669896205712575  0.6677574514222258  0.5527137733793523
  0.1652539280065142  0.1669896205712575  0.5527137733793523
  0.8328522357702326  0.3343226902962044  0.6169496080156662
  0.8328240739335868  0.8328522357702326  0.6169496080156662
 
  0.00000000E+00  0.00000000E+00  0.00000000E+00
  0.00000000E+00  0.00000000E+00  0.00000000E+00
  0.00000000E+00  0.00000000E+00  0.00000000E+00
  0.00000000E+00  0.00000000E+00  0.00000000E+00
  0.00000000E+00  0.00000000E+00  0.00000000E+00
  0.00000000E+00  0.00000000E+00  0.00000000E+00
  0.00000000E+00  0.00000000E+00  0.00000000E+00
  0.00000000E+00  0.00000000E+00  0.00000000E+00
  0.00000000E+00  0.00000000E+00  0.00000000E+00
  0.00000000E+00  0.00000000E+00  0.00000000E+00
  0.00000000E+00  0.00000000E+00  0.00000000E+00
  0.00000000E+00  0.00000000E+00  0.00000000E+00
  0.00000000E+00  0.00000000E+00  0.00000000E+00
  0.00000000E+00  0.00000000E+00  0.00000000E+00
  0.00000000E+00  0.00000000E+00  0.00000000E+00
  0.00000000E+00  0.00000000E+00  0.00000000E+00
  0.00000000E+00  0.00000000E+00  0.00000000E+00
  0.00000000E+00  0.00000000E+00  0.00000000E+00
  0.00000000E+00  0.00000000E+00  0.00000000E+00
  0.00000000E+00  0.00000000E+00  0.00000000E+00
  0.00000000E+00  0.00000000E+00  0.00000000E+00
