name                                    
   1.00000000000000     
     3.2987732430999999    0.0000000000000000    0.0000000000000000
    -1.6493866214999999    2.8568214298000001    0.0000000000000000
     0.0000000000000000    0.0000000000000000   25.0000000000000000
   Ni   S 
     1     2
Direct
  0.0000000000000000  0.0000000000000000  0.5000000000000000
  0.6666666667000030  0.3333333332999970  0.4523981122172458
  0.3333333332999970  0.6666666667000030  0.5476018877827542
 
  0.00000000E+00  0.00000000E+00  0.00000000E+00
  0.00000000E+00  0.00000000E+00  0.00000000E+00
  0.00000000E+00  0.00000000E+00  0.00000000E+00
