name                                    
   1.00000000000000     
     3.5839885996000000    0.0000000000000000    0.0000000000000000
    -1.7919942998000000    3.1038251741999998    0.0000000000000000
     0.0000000000000000    0.0000000000000000   25.0000000000000000
   Hf   S 
     1     2
Direct
  0.0000000000000000  0.0000000000000000  0.5000000000000000
  0.6666666667000030  0.3333333332999970  0.4412449259110471
  0.3333333332999970  0.6666666667000030  0.5587550740889529
 
  0.00000000E+00  0.00000000E+00  0.00000000E+00
  0.00000000E+00  0.00000000E+00  0.00000000E+00
  0.00000000E+00  0.00000000E+00  0.00000000E+00
