Cr3 W3 Se6 S6                           
   1.00000000000000     
     0.0000000000000000   -5.5391589999999997    0.0000000000000000
    -4.7970530000000000   -2.7695799999999999    0.0000000000000000
     0.0000000000000000    0.0000000000000000  -30.0000000000000000
   Cr   W    Se   S 
     3     3     6     6
Direct
  0.0000000000000000  0.0000000000000000  0.6063151194642842
  0.3333330000000032  0.3333330000000032  0.6063151194642842
  0.6666669999999968  0.6666669999999968  0.6063151194642842
  0.6666669999999968  0.6666669999999968  0.3937055015114552
  0.3333330000000032  0.3333330000000032  0.3937055015114552
  0.0000000000000000  0.0000000000000000  0.3937055015114552
  0.3333330000000032  0.6666669999999968  0.6586746962304559
  0.6666669999999968  0.0000000000000000  0.6586746962304559
  0.6666669999999968  0.0000000000000000  0.5540935374471658
  0.3333330000000032  0.6666669999999968  0.5540935374471658
  0.0000000000000000  0.3333330000000032  0.5540935374471658
  0.0000000000000000  0.3333330000000032  0.6586746962304559
  0.6666669999999968  0.3333330000000032  0.4457242175934226
  0.3333330000000032  0.0000000000000000  0.3415649277532253
  0.6666669999999968  0.3333330000000032  0.3415649277532253
  0.0000000000000000  0.6666669999999968  0.3415649277532253
  0.3333330000000032  0.0000000000000000  0.4457242175934226
  0.0000000000000000  0.6666669999999968  0.4457242175934226
 
  0.00000000E+00  0.00000000E+00  0.00000000E+00
  0.00000000E+00  0.00000000E+00  0.00000000E+00
  0.00000000E+00  0.00000000E+00  0.00000000E+00
  0.00000000E+00  0.00000000E+00  0.00000000E+00
  0.00000000E+00  0.00000000E+00  0.00000000E+00
  0.00000000E+00  0.00000000E+00  0.00000000E+00
  0.00000000E+00  0.00000000E+00  0.00000000E+00
  0.00000000E+00  0.00000000E+00  0.00000000E+00
  0.00000000E+00  0.00000000E+00  0.00000000E+00
  0.00000000E+00  0.00000000E+00  0.00000000E+00
  0.00000000E+00  0.00000000E+00  0.00000000E+00
  0.00000000E+00  0.00000000E+00  0.00000000E+00
  0.00000000E+00  0.00000000E+00  0.00000000E+00
  0.00000000E+00  0.00000000E+00  0.00000000E+00
  0.00000000E+00  0.00000000E+00  0.00000000E+00
  0.00000000E+00  0.00000000E+00  0.00000000E+00
  0.00000000E+00  0.00000000E+00  0.00000000E+00
  0.00000000E+00  0.00000000E+00  0.00000000E+00
