name                                    
   1.00000000000000     
     3.6518604061000000    0.0000000000000000    0.0000000000000000
    -1.8259302031000000    3.1626038828000000    0.0000000000000000
     0.0000000000000000    0.0000000000000000   25.0000000000000000
   Pd   Se
     1     2
Direct
  0.0000000000000000  0.0000000000000000  0.5000000000000000
  0.6666666667000030  0.3333333332999970  0.4456035164900456
  0.3333333332999970  0.6666666667000030  0.5543964835099544
 
  0.00000000E+00  0.00000000E+00  0.00000000E+00
  0.00000000E+00  0.00000000E+00  0.00000000E+00
  0.00000000E+00  0.00000000E+00  0.00000000E+00
