name                                    
   1.00000000000000     
     3.7250174372000000    0.0000000000000000    0.0000000000000000
    -1.8625087186000000    3.2259597302000000    0.0000000000000000
     0.0000000000000000    0.0000000000000000   25.0000000000000000
   Sn   S 
     1     2
Direct
  0.0000000000000000  0.0000000000000000  0.5000000000000000
  0.6666666667000030  0.3333333332999970  0.4412838249230262
  0.3333333332999970  0.6666666667000030  0.5587161750769738
 
  0.00000000E+00  0.00000000E+00  0.00000000E+00
  0.00000000E+00  0.00000000E+00  0.00000000E+00
  0.00000000E+00  0.00000000E+00  0.00000000E+00
