name                                    
   1.00000000000000     
     3.1861230367000002    0.0000000000000000    0.0000000000000000
    -1.5930615184000001    2.7592634893999999    0.0000000000000000
     0.0000000000000000    0.0000000000000000   25.0000000000000000
   Cr   Se
     1     2
Direct
 -0.0000000000000000  0.0000000000000000  0.5000000000000000
  0.6666666667000030  0.3333333332999970  0.4369094612022990
  0.6666666667000030  0.3333333332999970  0.5630905387977010
 
  0.00000000E+00  0.00000000E+00  0.00000000E+00
  0.00000000E+00  0.00000000E+00  0.00000000E+00
  0.00000000E+00  0.00000000E+00  0.00000000E+00
