name                                    
   1.00000000000000     
     2.9956090054000000    0.0000000000000000    0.0000000000000000
    -1.4978045027000000    2.5942734985000002    0.0000000000000000
     0.0000000000000000    0.0000000000000000   25.0000000000000000
   Ti   O 
     1     2
Direct
 -0.0000000000000000  0.0000000000000000  0.5000000000000000
  0.6666666667000030  0.3333333332999970  0.4608723835901289
  0.3333333332999970  0.6666666667000030  0.5391276164098712
 
  0.00000000E+00  0.00000000E+00  0.00000000E+00
  0.00000000E+00  0.00000000E+00  0.00000000E+00
  0.00000000E+00  0.00000000E+00  0.00000000E+00
