Te12 Mo3 W3                             
   1.00000000000000     
    -5.3231010000000003   -3.0732940000000002    0.0000000000000000
    -5.3231010000000003    3.0732940000000002    0.0000000000000000
     0.0000000000000000    0.0000000000000000  -30.0000000000000000
   Te   Mo   W 
    12     3     3
Direct
  0.0000000000000000  0.6666669999999968  0.6895780348214515
  0.3333330000000032  0.0000000000000000  0.4305582450333105
  0.0000000000000000  0.6666669999999968  0.3099495118854207
  0.6666669999999968  0.3333330000000032  0.3099495118854207
  0.3333330000000032  0.0000000000000000  0.3099495118854207
  0.6666669999999968  0.3333330000000032  0.4305582450333105
  0.6666669999999968  0.3333330000000032  0.6895780348214515
  0.0000000000000000  0.6666669999999968  0.4305582450333105
  0.0000000000000000  0.6666669999999968  0.5694588361322985
  0.6666669999999968  0.3333330000000032  0.5694588361322985
  0.3333330000000032  0.0000000000000000  0.5694588361322985
  0.3333330000000032  0.0000000000000000  0.6895780348214515
  0.6666669999999968  0.6666669999999968  0.6295037265834011
  0.3333330000000032  0.3333330000000032  0.6295037265834011
  0.0000000000000000  0.0000000000000000  0.6295037265834011
  0.0000000000000000  0.0000000000000000  0.3702646455441183
  0.3333330000000032  0.3333330000000032  0.3702646455441183
  0.6666669999999968  0.6666669999999968  0.3702646455441183
 
  0.00000000E+00  0.00000000E+00  0.00000000E+00
  0.00000000E+00  0.00000000E+00  0.00000000E+00
  0.00000000E+00  0.00000000E+00  0.00000000E+00
  0.00000000E+00  0.00000000E+00  0.00000000E+00
  0.00000000E+00  0.00000000E+00  0.00000000E+00
  0.00000000E+00  0.00000000E+00  0.00000000E+00
  0.00000000E+00  0.00000000E+00  0.00000000E+00
  0.00000000E+00  0.00000000E+00  0.00000000E+00
  0.00000000E+00  0.00000000E+00  0.00000000E+00
  0.00000000E+00  0.00000000E+00  0.00000000E+00
  0.00000000E+00  0.00000000E+00  0.00000000E+00
  0.00000000E+00  0.00000000E+00  0.00000000E+00
  0.00000000E+00  0.00000000E+00  0.00000000E+00
  0.00000000E+00  0.00000000E+00  0.00000000E+00
  0.00000000E+00  0.00000000E+00  0.00000000E+00
  0.00000000E+00  0.00000000E+00  0.00000000E+00
  0.00000000E+00  0.00000000E+00  0.00000000E+00
  0.00000000E+00  0.00000000E+00  0.00000000E+00
