name                                    
   1.00000000000000     
     3.9656087108999998    0.0000000000000000    0.0000000000000000
    -1.9828043554000001    3.4343178851000000    0.0000000000000000
     0.0000000000000000    0.0000000000000000   25.0000000000000000
   Pt   Te
     1     2
Direct
  0.0000000000000000  0.0000000000000000  0.5000000000000000
  0.6666666667000030  0.3333333332999970  0.4432343713737268
  0.3333333332999970  0.6666666667000030  0.5567656286262732
 
  0.00000000E+00  0.00000000E+00  0.00000000E+00
  0.00000000E+00  0.00000000E+00  0.00000000E+00
  0.00000000E+00  0.00000000E+00  0.00000000E+00
