Cr6 Te6 Se6                             
   1.00000000000000     
     0.0000000000000000   -5.7853389999999996    0.0000000000000000
    -5.0102510000000002   -2.8926690000000002    0.0000000000000000
     0.0000000000000000    0.0000000000000000  -30.0000000000000000
   Cr   Te   Se
     6     6     6
Direct
  0.0000000000000000  0.0000000000000000  0.6107370042919911
  0.3333330000000032  0.3333330000000032  0.6107370042919911
  0.6666669999999968  0.6666669999999968  0.6107370042919911
  0.6666669999999968  0.6666669999999968  0.3848157618014696
  0.3333330000000032  0.3333330000000032  0.3848157618014696
  0.0000000000000000  0.0000000000000000  0.3848157618014696
  0.0000000000000000  0.3333330000000032  0.4429702541402349
  0.6666669999999968  0.0000000000000000  0.3266107114976649
  0.3333330000000032  0.6666669999999968  0.3266107114976649
  0.0000000000000000  0.3333330000000032  0.3266107114976649
  0.6666669999999968  0.0000000000000000  0.4429702541402349
  0.3333330000000032  0.6666669999999968  0.4429702541402349
  0.6666669999999968  0.3333330000000032  0.6617840570290809
  0.3333330000000032  0.0000000000000000  0.6617840570290809
  0.0000000000000000  0.6666669999999968  0.5598352112395588
  0.6666669999999968  0.3333330000000032  0.5598352112395588
  0.3333330000000032  0.0000000000000000  0.5598352112395588
  0.0000000000000000  0.6666669999999968  0.6617840570290809
 
  0.00000000E+00  0.00000000E+00  0.00000000E+00
  0.00000000E+00  0.00000000E+00  0.00000000E+00
  0.00000000E+00  0.00000000E+00  0.00000000E+00
  0.00000000E+00  0.00000000E+00  0.00000000E+00
  0.00000000E+00  0.00000000E+00  0.00000000E+00
  0.00000000E+00  0.00000000E+00  0.00000000E+00
  0.00000000E+00  0.00000000E+00  0.00000000E+00
  0.00000000E+00  0.00000000E+00  0.00000000E+00
  0.00000000E+00  0.00000000E+00  0.00000000E+00
  0.00000000E+00  0.00000000E+00  0.00000000E+00
  0.00000000E+00  0.00000000E+00  0.00000000E+00
  0.00000000E+00  0.00000000E+00  0.00000000E+00
  0.00000000E+00  0.00000000E+00  0.00000000E+00
  0.00000000E+00  0.00000000E+00  0.00000000E+00
  0.00000000E+00  0.00000000E+00  0.00000000E+00
  0.00000000E+00  0.00000000E+00  0.00000000E+00
  0.00000000E+00  0.00000000E+00  0.00000000E+00
  0.00000000E+00  0.00000000E+00  0.00000000E+00
