name                                    
   1.00000000000000     
     2.9872606416999998    0.0000000000000000    0.0000000000000000
    -1.4936303207999999    2.5870436034000002    0.0000000000000000
     0.0000000000000000    0.0000000000000000   25.0000000000000000
   Ge   O 
     1     2
Direct
 -0.0000000000000000  0.0000000000000000  0.5000000000000000
  0.6666666667000030  0.3333333332999970  0.4617033884993793
  0.3333333332999970  0.6666666667000030  0.5382966115006207
 
  0.00000000E+00  0.00000000E+00  0.00000000E+00
  0.00000000E+00  0.00000000E+00  0.00000000E+00
  0.00000000E+00  0.00000000E+00  0.00000000E+00
