Ti3 Sn3 Te6 Se6                         
   1.00000000000000     
    -5.7003120000000003   -3.2910770000000000    0.0000000000000000
    -5.7003120000000003    3.2910770000000000    0.0000000000000000
     0.0000000000000000    0.0000000000000000  -30.0000000000000000
   Ti   Sn   Te   Se
     3     3     6     6
Direct
  0.6666669999999968  0.6666669999999968  0.3897436827798018
  0.3333330000000032  0.3333330000000032  0.3897436827798018
  0.0000000000000000  0.0000000000000000  0.3897436827798018
  0.0000000000000000  0.0000000000000000  0.6040682103040780
  0.3333330000000032  0.3333330000000032  0.6040682103040780
  0.6666669999999968  0.6666669999999968  0.6040682103040780
  0.0000000000000000  0.3333330000000032  0.4478578170030616
  0.6666669999999968  0.0000000000000000  0.3307446296016252
  0.3333330000000032  0.6666669999999968  0.3307446296016252
  0.0000000000000000  0.3333330000000032  0.3307446296016252
  0.6666669999999968  0.0000000000000000  0.4478578170030616
  0.3333330000000032  0.6666669999999968  0.4478578170030616
  0.6666669999999968  0.0000000000000000  0.6578799278798186
  0.3333330000000032  0.6666669999999968  0.6578799278798186
  0.0000000000000000  0.6666669999999968  0.5501287324316237
  0.6666669999999968  0.3333330000000032  0.5501287324316237
  0.3333330000000032  0.0000000000000000  0.5501287324316237
  0.0000000000000000  0.3333330000000032  0.6578799278798186
 
  0.00000000E+00  0.00000000E+00  0.00000000E+00
  0.00000000E+00  0.00000000E+00  0.00000000E+00
  0.00000000E+00  0.00000000E+00  0.00000000E+00
  0.00000000E+00  0.00000000E+00  0.00000000E+00
  0.00000000E+00  0.00000000E+00  0.00000000E+00
  0.00000000E+00  0.00000000E+00  0.00000000E+00
  0.00000000E+00  0.00000000E+00  0.00000000E+00
  0.00000000E+00  0.00000000E+00  0.00000000E+00
  0.00000000E+00  0.00000000E+00  0.00000000E+00
  0.00000000E+00  0.00000000E+00  0.00000000E+00
  0.00000000E+00  0.00000000E+00  0.00000000E+00
  0.00000000E+00  0.00000000E+00  0.00000000E+00
  0.00000000E+00  0.00000000E+00  0.00000000E+00
  0.00000000E+00  0.00000000E+00  0.00000000E+00
  0.00000000E+00  0.00000000E+00  0.00000000E+00
  0.00000000E+00  0.00000000E+00  0.00000000E+00
  0.00000000E+00  0.00000000E+00  0.00000000E+00
  0.00000000E+00  0.00000000E+00  0.00000000E+00
