Ti3 Mo3 S12                             
   1.00000000000000     
     0.0000000000000000   -5.7150210000000001    0.0000000000000000
    -4.9493530000000003   -2.8575100000000000    0.0000000000000000
     0.0000000000000000    0.0000000000000000  -30.0000000000000000
   Ti   Mo   S 
     3     3    12
Direct
  0.0000000000000000  0.0000000000000000  0.5964035331421869
  0.3333330000000032  0.3333330000000032  0.5964035331421869
  0.6666669999999968  0.6666669999999968  0.5964035331421869
  0.6666669999999968  0.6666669999999968  0.3987993307881936
  0.3333330000000032  0.3333330000000032  0.3987993307881936
  0.0000000000000000  0.0000000000000000  0.3987993307881936
  0.3333330000000032  0.0000000000000000  0.4493952406496291
  0.0000000000000000  0.6666669999999968  0.3479775900170168
  0.6666669999999968  0.3333330000000032  0.3479775900170168
  0.3333330000000032  0.0000000000000000  0.3479775900170168
  0.0000000000000000  0.6666669999999968  0.6454609804879894
  0.6666669999999968  0.3333330000000032  0.6454609804879894
  0.3333330000000032  0.0000000000000000  0.6454609804879894
  0.6666669999999968  0.0000000000000000  0.5477383249149881
  0.3333330000000032  0.6666669999999968  0.5477383249149881
  0.0000000000000000  0.3333330000000032  0.5477383249149881
  0.6666669999999968  0.3333330000000032  0.4493952406496291
  0.0000000000000000  0.6666669999999968  0.4493952406496291
 
  0.00000000E+00  0.00000000E+00  0.00000000E+00
  0.00000000E+00  0.00000000E+00  0.00000000E+00
  0.00000000E+00  0.00000000E+00  0.00000000E+00
  0.00000000E+00  0.00000000E+00  0.00000000E+00
  0.00000000E+00  0.00000000E+00  0.00000000E+00
  0.00000000E+00  0.00000000E+00  0.00000000E+00
  0.00000000E+00  0.00000000E+00  0.00000000E+00
  0.00000000E+00  0.00000000E+00  0.00000000E+00
  0.00000000E+00  0.00000000E+00  0.00000000E+00
  0.00000000E+00  0.00000000E+00  0.00000000E+00
  0.00000000E+00  0.00000000E+00  0.00000000E+00
  0.00000000E+00  0.00000000E+00  0.00000000E+00
  0.00000000E+00  0.00000000E+00  0.00000000E+00
  0.00000000E+00  0.00000000E+00  0.00000000E+00
  0.00000000E+00  0.00000000E+00  0.00000000E+00
  0.00000000E+00  0.00000000E+00  0.00000000E+00
  0.00000000E+00  0.00000000E+00  0.00000000E+00
  0.00000000E+00  0.00000000E+00  0.00000000E+00
