name                                    
   1.00000000000000     
     3.2995689127999999    0.0000000000000000    0.0000000000000000
    -1.6497844563999999    2.8575105000000001    0.0000000000000000
     0.0000000000000000    0.0000000000000000   25.0000000000000000
   Ti   S 
     1     2
Direct
 -0.0000000000000000  0.0000000000000000  0.5000000000000000
  0.6666666667000030  0.3333333332999970  0.4412033371966383
  0.3333333332999970  0.6666666667000030  0.5587966628033617
 
  0.00000000E+00  0.00000000E+00  0.00000000E+00
  0.00000000E+00  0.00000000E+00  0.00000000E+00
  0.00000000E+00  0.00000000E+00  0.00000000E+00
