Te6 Pt3 W3 Se6                          
   1.00000000000000     
    -5.4719189999999998   -3.1592140000000000    0.0000000000000000
    -5.4719189999999998    3.1592140000000000    0.0000000000000000
     0.0000000000000000    0.0000000000000000  -30.0000000000000000
   Te   Pt   W    Se
     6     3     3     6
Direct
  0.0000000000000000  0.6666669999999968  0.4338059273257358
  0.3333330000000032  0.0000000000000000  0.4338059273257358
  0.0000000000000000  0.6666669999999968  0.3157976883279545
  0.6666669999999968  0.3333330000000032  0.3157976883279545
  0.3333330000000032  0.0000000000000000  0.3157976883279545
  0.6666669999999968  0.3333330000000032  0.4338059273257358
  0.0000000000000000  0.0000000000000000  0.6084786491761562
  0.6666669999999968  0.6666669999999968  0.6084786491761562
  0.3333330000000032  0.3333330000000032  0.6084786491761562
  0.0000000000000000  0.0000000000000000  0.3748155933338921
  0.3333330000000032  0.3333330000000032  0.3748155933338921
  0.6666669999999968  0.6666669999999968  0.3748155933338921
  0.6666669999999968  0.0000000000000000  0.6540362715480725
  0.0000000000000000  0.6666669999999968  0.5630558702881885
  0.6666669999999968  0.3333330000000032  0.5630558702881885
  0.3333330000000032  0.0000000000000000  0.5630558702881885
  0.3333330000000032  0.6666669999999968  0.6540362715480725
  0.0000000000000000  0.3333330000000032  0.6540362715480725
 
  0.00000000E+00  0.00000000E+00  0.00000000E+00
  0.00000000E+00  0.00000000E+00  0.00000000E+00
  0.00000000E+00  0.00000000E+00  0.00000000E+00
  0.00000000E+00  0.00000000E+00  0.00000000E+00
  0.00000000E+00  0.00000000E+00  0.00000000E+00
  0.00000000E+00  0.00000000E+00  0.00000000E+00
  0.00000000E+00  0.00000000E+00  0.00000000E+00
  0.00000000E+00  0.00000000E+00  0.00000000E+00
  0.00000000E+00  0.00000000E+00  0.00000000E+00
  0.00000000E+00  0.00000000E+00  0.00000000E+00
  0.00000000E+00  0.00000000E+00  0.00000000E+00
  0.00000000E+00  0.00000000E+00  0.00000000E+00
  0.00000000E+00  0.00000000E+00  0.00000000E+00
  0.00000000E+00  0.00000000E+00  0.00000000E+00
  0.00000000E+00  0.00000000E+00  0.00000000E+00
  0.00000000E+00  0.00000000E+00  0.00000000E+00
  0.00000000E+00  0.00000000E+00  0.00000000E+00
  0.00000000E+00  0.00000000E+00  0.00000000E+00
