Ti4 Te6 Pd3 Se8                         
   1.00000000000000     
    -3.4858989999999999   -6.0377549999999998    0.0000000000000000
    -6.9717989999999999    0.0000000000000000    0.0000000000000000
     0.0000000000000000    0.0000000000000000  -30.0000000000000000
   Ti   Te   Pd   Se
     4     6     3     8
Direct
  0.9977452465045857  0.4987481383732799  0.3971640716906109
  0.4987481383732799  0.5035066151221272  0.3971640716906109
  0.5035066151221272  0.9977452465045857  0.3971640716906109
  0.0000000000000000  0.0000000000000000  0.3987077816046423
  0.9905630000131964  0.3428948512174301  0.5450748107693641
  0.3428948512174301  0.6665421487693806  0.5450748107693641
  0.6665421487693806  0.9905630000131964  0.5450748107693641
  0.3236175095588010  0.0092176641784931  0.6359676206914529
  0.6671648262627059  0.3236175095588010  0.6359676206914529
  0.0092176641784931  0.6671648262627059  0.6359676206914529
  0.0000000000000000  0.0000000000000000  0.5878520310741848
  0.6666669999999968  0.6666669999999968  0.5940854375459779
  0.3333330000000032  0.3333330000000032  0.5882672567589609
  0.1676657055575461  0.1650131634005731  0.3452902915616392
  0.1650131634005731  0.6673221310418711  0.3452902915616392
  0.6673221310418711  0.1676657055575461  0.3452902915616392
  0.6666669999999968  0.6666669999999968  0.3442991860440685
  0.1704204305008759  0.1633960397082816  0.4514764624065464
  0.1633960397082816  0.6661845297908258  0.4514764624065464
  0.6661845297908258  0.1704204305008759  0.4514764624065464
  0.6666669999999968  0.6666669999999968  0.4520235356133497
 
  0.00000000E+00  0.00000000E+00  0.00000000E+00
  0.00000000E+00  0.00000000E+00  0.00000000E+00
  0.00000000E+00  0.00000000E+00  0.00000000E+00
  0.00000000E+00  0.00000000E+00  0.00000000E+00
  0.00000000E+00  0.00000000E+00  0.00000000E+00
  0.00000000E+00  0.00000000E+00  0.00000000E+00
  0.00000000E+00  0.00000000E+00  0.00000000E+00
  0.00000000E+00  0.00000000E+00  0.00000000E+00
  0.00000000E+00  0.00000000E+00  0.00000000E+00
  0.00000000E+00  0.00000000E+00  0.00000000E+00
  0.00000000E+00  0.00000000E+00  0.00000000E+00
  0.00000000E+00  0.00000000E+00  0.00000000E+00
  0.00000000E+00  0.00000000E+00  0.00000000E+00
  0.00000000E+00  0.00000000E+00  0.00000000E+00
  0.00000000E+00  0.00000000E+00  0.00000000E+00
  0.00000000E+00  0.00000000E+00  0.00000000E+00
  0.00000000E+00  0.00000000E+00  0.00000000E+00
  0.00000000E+00  0.00000000E+00  0.00000000E+00
  0.00000000E+00  0.00000000E+00  0.00000000E+00
  0.00000000E+00  0.00000000E+00  0.00000000E+00
  0.00000000E+00  0.00000000E+00  0.00000000E+00
