name                                    
   1.00000000000000     
     4.0251698630000003    0.0000000000000000    0.0000000000000000
    -2.0125849315000002    3.4858993559000000    0.0000000000000000
     0.0000000000000000    0.0000000000000000   25.0000000000000000
   Pd   Te
     1     2
Direct
  0.0000000000000000  0.0000000000000000  0.5000000000000000
  0.6666666667000030  0.3333333332999970  0.4447305161669952
  0.3333333332999970  0.6666666667000030  0.5552694838330049
 
  0.00000000E+00  0.00000000E+00  0.00000000E+00
  0.00000000E+00  0.00000000E+00  0.00000000E+00
  0.00000000E+00  0.00000000E+00  0.00000000E+00
