name                                    
   1.00000000000000     
     3.5600526111000002    0.0000000000000000    0.0000000000000000
    -1.7800263055000001    3.0830959999999998    0.0000000000000000
     0.0000000000000000    0.0000000000000000   25.0000000000000000
   Mo   Te
     1     2
Direct
  0.0000000000000000  0.0000000000000000  0.5000000000000000
  0.6666666667000030  0.3333333332999970  0.4279415927017372
  0.6666666667000030  0.3333333332999970  0.5720584072982628
 
  0.00000000E+00  0.00000000E+00  0.00000000E+00
  0.00000000E+00  0.00000000E+00  0.00000000E+00
  0.00000000E+00  0.00000000E+00  0.00000000E+00
