Hf3 Sn3 O12                             
   1.00000000000000     
     0.0000000000000000   -5.6075520000000001    0.0000000000000000
    -4.8562830000000003   -2.8037760000000000    0.0000000000000000
     0.0000000000000000    0.0000000000000000  -30.0000000000000000
   Hf   Sn   O 
     3     3    12
Direct
  0.0000000000000000  0.0000000000000000  0.5852303158916001
  0.3333330000000032  0.3333330000000032  0.5852303158916001
  0.6666669999999968  0.6666669999999968  0.5852303158916001
  0.6666669999999968  0.6666669999999968  0.4138090698776722
  0.3333330000000032  0.3333330000000032  0.4138090698776722
  0.0000000000000000  0.0000000000000000  0.4138090698776722
  0.3333330000000032  0.6666669999999968  0.4473587596894575
  0.0000000000000000  0.6666669999999968  0.3802145055945587
  0.6666669999999968  0.3333330000000032  0.3802145055945587
  0.3333330000000032  0.0000000000000000  0.3802145055945587
  0.0000000000000000  0.6666669999999968  0.6174988928060898
  0.6666669999999968  0.3333330000000032  0.6174988928060898
  0.3333330000000032  0.0000000000000000  0.6174988928060898
  0.6666669999999968  0.0000000000000000  0.5530354561406057
  0.3333330000000032  0.6666669999999968  0.5530354561406057
  0.0000000000000000  0.3333330000000032  0.5530354561406057
  0.6666669999999968  0.0000000000000000  0.4473587596894575
  0.0000000000000000  0.3333330000000032  0.4473587596894575
 
  0.00000000E+00  0.00000000E+00  0.00000000E+00
  0.00000000E+00  0.00000000E+00  0.00000000E+00
  0.00000000E+00  0.00000000E+00  0.00000000E+00
  0.00000000E+00  0.00000000E+00  0.00000000E+00
  0.00000000E+00  0.00000000E+00  0.00000000E+00
  0.00000000E+00  0.00000000E+00  0.00000000E+00
  0.00000000E+00  0.00000000E+00  0.00000000E+00
  0.00000000E+00  0.00000000E+00  0.00000000E+00
  0.00000000E+00  0.00000000E+00  0.00000000E+00
  0.00000000E+00  0.00000000E+00  0.00000000E+00
  0.00000000E+00  0.00000000E+00  0.00000000E+00
  0.00000000E+00  0.00000000E+00  0.00000000E+00
  0.00000000E+00  0.00000000E+00  0.00000000E+00
  0.00000000E+00  0.00000000E+00  0.00000000E+00
  0.00000000E+00  0.00000000E+00  0.00000000E+00
  0.00000000E+00  0.00000000E+00  0.00000000E+00
  0.00000000E+00  0.00000000E+00  0.00000000E+00
  0.00000000E+00  0.00000000E+00  0.00000000E+00
