name                                    
   1.00000000000000     
     3.4365714337000002    0.0000000000000000    0.0000000000000000
    -1.7182857168000001    2.9761581635000001    0.0000000000000000
     0.0000000000000000    0.0000000000000000   25.0000000000000000
   Mo   Se
     1     2
Direct
  0.0000000000000000  0.0000000000000000  0.5000000000000000
  0.6666666667000030  0.3333333332999970  0.4348374541428404
  0.6666666667000030  0.3333333332999970  0.5651625458571596
 
  0.00000000E+00  0.00000000E+00  0.00000000E+00
  0.00000000E+00  0.00000000E+00  0.00000000E+00
  0.00000000E+00  0.00000000E+00  0.00000000E+00
