name                                    
   1.00000000000000     
     3.5495754357000000    0.0000000000000000    0.0000000000000000
    -1.7747877179000000    3.0740224999999999    0.0000000000000000
     0.0000000000000000    0.0000000000000000   25.0000000000000000
   Hf   S 
     1     2
Direct
  0.0000000000000000  0.0000000000000000  0.5000000000000000
  0.6666666667000030  0.3333333332999970  0.4406295019131719
  0.3333333332999970  0.6666666667000030  0.5593704980868281
 
  0.00000000E+00  0.00000000E+00  0.00000000E+00
  0.00000000E+00  0.00000000E+00  0.00000000E+00
  0.00000000E+00  0.00000000E+00  0.00000000E+00
