Te12 Pd3 Pt3                            
   1.00000000000000     
    -6.0251469999999996   -3.4786199999999998    0.0000000000000000
    -6.0251469999999996    3.4786199999999998    0.0000000000000000
     0.0000000000000000    0.0000000000000000  -30.0000000000000000
   Te   Pd   Pt
    12     3     3
Direct
  0.0000000000000000  0.3333330000000032  0.6320558856898870
  0.3333330000000032  0.6666669999999968  0.4603696979411680
  0.0000000000000000  0.6666669999999968  0.3678004946151177
  0.6666669999999968  0.3333330000000032  0.3678004946151177
  0.3333330000000032  0.0000000000000000  0.3678004946151177
  0.6666669999999968  0.0000000000000000  0.4603696979411680
  0.6666669999999968  0.0000000000000000  0.6320558856898870
  0.0000000000000000  0.3333330000000032  0.4603696979411680
  0.0000000000000000  0.6666669999999968  0.5395393778166309
  0.6666669999999968  0.3333330000000032  0.5395393778166309
  0.3333330000000032  0.0000000000000000  0.5395393778166309
  0.3333330000000032  0.6666669999999968  0.6320558856898870
  0.6666669999999968  0.6666669999999968  0.5845927857080682
  0.3333330000000032  0.3333330000000032  0.5845927857080682
  0.0000000000000000  0.0000000000000000  0.5845927857080682
  0.0000000000000000  0.0000000000000000  0.4148017582291317
  0.3333330000000032  0.3333330000000032  0.4148017582291317
  0.6666669999999968  0.6666669999999968  0.4148017582291317
 
  0.00000000E+00  0.00000000E+00  0.00000000E+00
  0.00000000E+00  0.00000000E+00  0.00000000E+00
  0.00000000E+00  0.00000000E+00  0.00000000E+00
  0.00000000E+00  0.00000000E+00  0.00000000E+00
  0.00000000E+00  0.00000000E+00  0.00000000E+00
  0.00000000E+00  0.00000000E+00  0.00000000E+00
  0.00000000E+00  0.00000000E+00  0.00000000E+00
  0.00000000E+00  0.00000000E+00  0.00000000E+00
  0.00000000E+00  0.00000000E+00  0.00000000E+00
  0.00000000E+00  0.00000000E+00  0.00000000E+00
  0.00000000E+00  0.00000000E+00  0.00000000E+00
  0.00000000E+00  0.00000000E+00  0.00000000E+00
  0.00000000E+00  0.00000000E+00  0.00000000E+00
  0.00000000E+00  0.00000000E+00  0.00000000E+00
  0.00000000E+00  0.00000000E+00  0.00000000E+00
  0.00000000E+00  0.00000000E+00  0.00000000E+00
  0.00000000E+00  0.00000000E+00  0.00000000E+00
  0.00000000E+00  0.00000000E+00  0.00000000E+00
