name                                    
   1.00000000000000     
     3.4179222539000000    0.0000000000000000    0.0000000000000000
    -1.7089611269000000    2.9600075000000001    0.0000000000000000
     0.0000000000000000    0.0000000000000000   25.0000000000000000
   Ti   S 
     1     2
Direct
  0.0000000000000000  0.0000000000000000  0.5000000000000000
  0.6666666667000030  0.3333333332999970  0.4404587708489061
  0.6666666667000030  0.3333333332999970  0.5595412291510939
 
  0.00000000E+00  0.00000000E+00  0.00000000E+00
  0.00000000E+00  0.00000000E+00  0.00000000E+00
  0.00000000E+00  0.00000000E+00  0.00000000E+00
