name                                    
   1.00000000000000     
     4.0714634265000003    0.0000000000000000    0.0000000000000000
    -2.0357317133000001    3.5259907578999998    0.0000000000000000
     0.0000000000000000    0.0000000000000000   25.0000000000000000
   Pd   Te
     1     2
Direct
  0.0000000000000000  0.0000000000000000  0.5000000000000000
  0.6666666667000030  0.3333333332999970  0.4457970463773577
  0.3333333332999970  0.6666666667000030  0.5542029536226423
 
  0.00000000E+00  0.00000000E+00  0.00000000E+00
  0.00000000E+00  0.00000000E+00  0.00000000E+00
  0.00000000E+00  0.00000000E+00  0.00000000E+00
