Hf2 Te2 Se2                             
   1.00000000000000     
    -1.9202470000000000   -3.3259660000000002    0.0000000000000000
    -3.8404950000000002    0.0000000000000000    0.0000000000000000
     0.0000000000000000    0.0000000000000000  -30.0000000000000000
   Hf   Te   Se
     2     2     2
Direct
  0.0000000000000000  0.0000000000000000  0.6140843830617939
  0.0000000000000000  0.0000000000000000  0.3769544339353885
  0.3333330000000032  0.3333330000000032  0.3148285788736089
  0.3333330000000032  0.3333330000000032  0.4386824174655288
  0.3333330000000032  0.3333330000000032  0.5631306364951882
  0.6666669999999968  0.6666669999999968  0.6651905501684823
 
  0.00000000E+00  0.00000000E+00  0.00000000E+00
  0.00000000E+00  0.00000000E+00  0.00000000E+00
  0.00000000E+00  0.00000000E+00  0.00000000E+00
  0.00000000E+00  0.00000000E+00  0.00000000E+00
  0.00000000E+00  0.00000000E+00  0.00000000E+00
  0.00000000E+00  0.00000000E+00  0.00000000E+00
