name                                    
   1.00000000000000     
     3.8816650012000000    0.0000000000000000    0.0000000000000000
    -1.9408325006000000    3.3616204999999999    0.0000000000000000
     0.0000000000000000    0.0000000000000000   25.0000000000000000
   Pt   Se
     1     2
Direct
 -0.0000000000000000  0.0000000000000000  0.5000000000000000
  0.6666666667000030  0.3333333332999970  0.4504998259652352
  0.3333333332999970  0.6666666667000030  0.5495001740347647
 
  0.00000000E+00  0.00000000E+00  0.00000000E+00
  0.00000000E+00  0.00000000E+00  0.00000000E+00
  0.00000000E+00  0.00000000E+00  0.00000000E+00
