Te6 Mo3 Pt4 O8                          
   1.00000000000000     
    -3.1074600000000001   -5.3822789999999996    0.0000000000000000
    -6.2149200000000002    0.0000000000000000    0.0000000000000000
     0.0000000000000000    0.0000000000000000  -30.0000000000000000
   Te   Mo   Pt   O 
     6     3     4     8
Direct
  0.6665897611091722  0.9972576159333926  0.4504415554099381
  0.9970417583471729  0.3355731346022992  0.4503163586401087
  0.6660617782689116  0.0012630988413775  0.3313149602952734
  0.3318884164810356  0.6666286562294985  0.3314463369670264
  0.0010310082323599  0.3321146607819969  0.3314470512384204
  0.3353463739022686  0.6671605593998819  0.4503161115419090
  0.6664463858567373  0.6669741462350132  0.3904661990794338
  0.3334253248455283  0.3330214808841774  0.3912223763997318
  0.9991704487461774  0.0000000565174219  0.3911348474446257
  0.0000019386567089  0.9999998895255970  0.5829767400959014
  0.4999338942222380  0.5002339555026865  0.5829953146227211
  0.5002313998153909  0.9998317484956019  0.5829975164106500
  0.9998317421416019  0.4999344607562790  0.5829954994098188
  0.3329945920879140  0.8341727423144860  0.6155237661170574
  0.8328294199738195  0.3329939255059600  0.6155240451874135
  0.6666655736973439  0.6666643653834043  0.5504337629735545
  0.6665827473897181  0.1676675308679521  0.5505168600842083
  0.1657596255201810  0.6665797233265494  0.5505133509863924
  0.1676600382222446  0.1657612224903389  0.5505134135153327
  0.3333304482677732  0.3333351293274376  0.6154484134053035
  0.8341773242157018  0.8328318970786626  0.6155245201751356
 
  0.00000000E+00  0.00000000E+00  0.00000000E+00
  0.00000000E+00  0.00000000E+00  0.00000000E+00
  0.00000000E+00  0.00000000E+00  0.00000000E+00
  0.00000000E+00  0.00000000E+00  0.00000000E+00
  0.00000000E+00  0.00000000E+00  0.00000000E+00
  0.00000000E+00  0.00000000E+00  0.00000000E+00
  0.00000000E+00  0.00000000E+00  0.00000000E+00
  0.00000000E+00  0.00000000E+00  0.00000000E+00
  0.00000000E+00  0.00000000E+00  0.00000000E+00
  0.00000000E+00  0.00000000E+00  0.00000000E+00
  0.00000000E+00  0.00000000E+00  0.00000000E+00
  0.00000000E+00  0.00000000E+00  0.00000000E+00
  0.00000000E+00  0.00000000E+00  0.00000000E+00
  0.00000000E+00  0.00000000E+00  0.00000000E+00
  0.00000000E+00  0.00000000E+00  0.00000000E+00
  0.00000000E+00  0.00000000E+00  0.00000000E+00
  0.00000000E+00  0.00000000E+00  0.00000000E+00
  0.00000000E+00  0.00000000E+00  0.00000000E+00
  0.00000000E+00  0.00000000E+00  0.00000000E+00
  0.00000000E+00  0.00000000E+00  0.00000000E+00
  0.00000000E+00  0.00000000E+00  0.00000000E+00
