name                                    
   1.00000000000000     
     3.6650105678000000    0.0000000000000000    0.0000000000000000
    -1.8325052839000000    3.1739922569000001    0.0000000000000000
     0.0000000000000000    0.0000000000000000   25.0000000000000000
   Hf   S 
     1     2
Direct
 -0.0000000000000000  0.0000000000000000  0.5000000000000000
  0.6666666667000030  0.3333333332999970  0.4427179076048516
  0.3333333332999970  0.6666666667000030  0.5572820923951484
 
  0.00000000E+00  0.00000000E+00  0.00000000E+00
  0.00000000E+00  0.00000000E+00  0.00000000E+00
  0.00000000E+00  0.00000000E+00  0.00000000E+00
