name                                    
   1.00000000000000     
     3.7129246425000000    0.0000000000000000    0.0000000000000000
    -1.8564623213000000    3.2154870627999999    0.0000000000000000
     0.0000000000000000    0.0000000000000000   25.0000000000000000
   Pt   Se
     1     2
Direct
  0.0000000000000000  0.0000000000000000  0.5000000000000000
  0.6666666667000030  0.3333333332999970  0.4468933623856586
  0.3333333332999970  0.6666666667000030  0.5531066376143414
 
  0.00000000E+00  0.00000000E+00  0.00000000E+00
  0.00000000E+00  0.00000000E+00  0.00000000E+00
  0.00000000E+00  0.00000000E+00  0.00000000E+00
