name                                    
   1.00000000000000     
     4.0568447993000003    0.0000000000000000    0.0000000000000000
    -2.0284223997000002    3.5133306553999999    0.0000000000000000
     0.0000000000000000    0.0000000000000000   25.0000000000000000
   Pd   Te
     1     2
Direct
  0.0000000000000000  0.0000000000000000  0.5000000000000000
  0.6666666667000030  0.3333333332999970  0.4454809161323880
  0.3333333332999970  0.6666666667000030  0.5545190838676120
 
  0.00000000E+00  0.00000000E+00  0.00000000E+00
  0.00000000E+00  0.00000000E+00  0.00000000E+00
  0.00000000E+00  0.00000000E+00  0.00000000E+00
