name                                    
   1.00000000000000     
     3.2818708487000001    0.0000000000000000    0.0000000000000000
    -1.6409354244000001    2.8421835270000000    0.0000000000000000
     0.0000000000000000    0.0000000000000000   25.0000000000000000
   Cr   Se
     1     2
Direct
 -0.0000000000000000  0.0000000000000000  0.5000000000000000
  0.6666666667000030  0.3333333332999970  0.4379797288462134
  0.6666666667000030  0.3333333332999970  0.5620202711537865
 
  0.00000000E+00  0.00000000E+00  0.00000000E+00
  0.00000000E+00  0.00000000E+00  0.00000000E+00
  0.00000000E+00  0.00000000E+00  0.00000000E+00
