name                                    
   1.00000000000000     
     3.7972316742999999    0.0000000000000000    0.0000000000000000
    -1.8986158371999999    3.2884990940000001    0.0000000000000000
     0.0000000000000000    0.0000000000000000   25.0000000000000000
   Sn   Se
     1     2
Direct
  0.0000000000000000  0.0000000000000000  0.5000000000000000
  0.6666666667000030  0.3333333332999970  0.4353099704832530
  0.3333333332999970  0.6666666667000030  0.5646900295167470
 
  0.00000000E+00  0.00000000E+00  0.00000000E+00
  0.00000000E+00  0.00000000E+00  0.00000000E+00
  0.00000000E+00  0.00000000E+00  0.00000000E+00
