Ti3 Pb3 Se6 O6                          
   1.00000000000000     
     0.0000000000000000   -5.9610200000000004    0.0000000000000000
    -5.1623950000000001   -2.9805100000000002    0.0000000000000000
     0.0000000000000000    0.0000000000000000  -30.0000000000000000
   Ti   Pb   Se   O 
     3     3     6     6
Direct
  0.6666669999999968  0.6666669999999968  0.3946290693190591
  0.3333330000000032  0.3333330000000032  0.3946290693190591
  0.0000000000000000  0.0000000000000000  0.3946290693190591
  0.0000000000000000  0.0000000000000000  0.5874535084166155
  0.3333330000000032  0.3333330000000032  0.5874535084166155
  0.6666669999999968  0.6666669999999968  0.5874535084166155
  0.0000000000000000  0.3333330000000032  0.4485377439185569
  0.6666669999999968  0.0000000000000000  0.3401811433231785
  0.3333330000000032  0.6666669999999968  0.3401811433231785
  0.0000000000000000  0.3333330000000032  0.3401811433231785
  0.6666669999999968  0.0000000000000000  0.4485377439185569
  0.3333330000000032  0.6666669999999968  0.4485377439185569
  0.6666669999999968  0.3333330000000032  0.6222416261211308
  0.3333330000000032  0.0000000000000000  0.6222416261211308
  0.6666669999999968  0.0000000000000000  0.5517089089014533
  0.3333330000000032  0.6666669999999968  0.5517089089014533
  0.0000000000000000  0.3333330000000032  0.5517089089014533
  0.0000000000000000  0.6666669999999968  0.6222416261211308
 
  0.00000000E+00  0.00000000E+00  0.00000000E+00
  0.00000000E+00  0.00000000E+00  0.00000000E+00
  0.00000000E+00  0.00000000E+00  0.00000000E+00
  0.00000000E+00  0.00000000E+00  0.00000000E+00
  0.00000000E+00  0.00000000E+00  0.00000000E+00
  0.00000000E+00  0.00000000E+00  0.00000000E+00
  0.00000000E+00  0.00000000E+00  0.00000000E+00
  0.00000000E+00  0.00000000E+00  0.00000000E+00
  0.00000000E+00  0.00000000E+00  0.00000000E+00
  0.00000000E+00  0.00000000E+00  0.00000000E+00
  0.00000000E+00  0.00000000E+00  0.00000000E+00
  0.00000000E+00  0.00000000E+00  0.00000000E+00
  0.00000000E+00  0.00000000E+00  0.00000000E+00
  0.00000000E+00  0.00000000E+00  0.00000000E+00
  0.00000000E+00  0.00000000E+00  0.00000000E+00
  0.00000000E+00  0.00000000E+00  0.00000000E+00
  0.00000000E+00  0.00000000E+00  0.00000000E+00
  0.00000000E+00  0.00000000E+00  0.00000000E+00
