Pt3 W4 S14                              
   1.00000000000000     
    -3.1399819999999998   -5.4386080000000003    0.0000000000000000
    -6.2799639999999997    0.0000000000000000    0.0000000000000000
     0.0000000000000000    0.0000000000000000  -30.0000000000000000
   Pt   W    S 
     3     4    14
Direct
  0.0000000000000000  0.0000000000000000  0.5924098856215352
  0.3333330000000032  0.3333330000000032  0.5925509370417075
  0.6666669999999968  0.6666669999999968  0.5934101379102259
  0.5008035015559216  0.4993524148903177  0.3941345238929514
  0.4993524148903177  0.9998440835537679  0.3941345238929514
  0.0000000000000000  0.0000000000000000  0.3940887565781495
  0.9998440835537679  0.5008035015559216  0.3941345238929514
  0.6669039729820838  0.0018937086803277  0.6327229908752372
  0.0018937086803277  0.3312023183375885  0.6327229908752372
  0.9972692262730192  0.6663208161232248  0.5532254585700542
  0.6666044092407404  0.1651146988505729  0.4467755361923764
  0.6663208161232248  0.3364099576037560  0.5532254585700542
  0.3364099576037560  0.9972692262730192  0.5532254585700542
  0.1660882590958437  0.1673266709049912  0.3413026359245137
  0.1673266709049912  0.6665860699991484  0.3413026359245137
  0.6665860699991484  0.1660882590958437  0.3413026359245137
  0.6666669999999968  0.6666669999999968  0.3413347177043349
  0.1651146988505729  0.1682818919086770  0.4467755361923764
  0.1682818919086770  0.6666044092407404  0.4467755361923764
  0.3312023183375885  0.6669039729820838  0.6327229908752372
  0.6666669999999968  0.6666669999999968  0.4470731287786123
 
  0.00000000E+00  0.00000000E+00  0.00000000E+00
  0.00000000E+00  0.00000000E+00  0.00000000E+00
  0.00000000E+00  0.00000000E+00  0.00000000E+00
  0.00000000E+00  0.00000000E+00  0.00000000E+00
  0.00000000E+00  0.00000000E+00  0.00000000E+00
  0.00000000E+00  0.00000000E+00  0.00000000E+00
  0.00000000E+00  0.00000000E+00  0.00000000E+00
  0.00000000E+00  0.00000000E+00  0.00000000E+00
  0.00000000E+00  0.00000000E+00  0.00000000E+00
  0.00000000E+00  0.00000000E+00  0.00000000E+00
  0.00000000E+00  0.00000000E+00  0.00000000E+00
  0.00000000E+00  0.00000000E+00  0.00000000E+00
  0.00000000E+00  0.00000000E+00  0.00000000E+00
  0.00000000E+00  0.00000000E+00  0.00000000E+00
  0.00000000E+00  0.00000000E+00  0.00000000E+00
  0.00000000E+00  0.00000000E+00  0.00000000E+00
  0.00000000E+00  0.00000000E+00  0.00000000E+00
  0.00000000E+00  0.00000000E+00  0.00000000E+00
  0.00000000E+00  0.00000000E+00  0.00000000E+00
  0.00000000E+00  0.00000000E+00  0.00000000E+00
  0.00000000E+00  0.00000000E+00  0.00000000E+00
