Zr3 Te6 Pt3 Se6                         
   1.00000000000000     
    -5.8576730000000001   -3.3819290000000000    0.0000000000000000
    -5.8576730000000001    3.3819290000000000    0.0000000000000000
     0.0000000000000000    0.0000000000000000  -30.0000000000000000
   Zr   Te   Pt   Se
     3     6     3     6
Direct
  0.6666669999999968  0.6666669999999968  0.3974090018322229
  0.3333330000000032  0.3333330000000032  0.3974090018322229
  0.0000000000000000  0.0000000000000000  0.3974090018322229
  0.0000000000000000  0.3333330000000032  0.6443383980963588
  0.3333330000000032  0.0000000000000000  0.5476786622601608
  0.6666669999999968  0.3333330000000032  0.5476786622601608
  0.0000000000000000  0.6666669999999968  0.5476786622601608
  0.3333330000000032  0.6666669999999968  0.6443383980963588
  0.6666669999999968  0.0000000000000000  0.6443383980963588
  0.0000000000000000  0.0000000000000000  0.5956315851241953
  0.6666669999999968  0.6666669999999968  0.5956315851241953
  0.3333330000000032  0.3333330000000032  0.5956315851241953
  0.3333330000000032  0.0000000000000000  0.3464250593278919
  0.6666669999999968  0.3333330000000032  0.3464250593278919
  0.0000000000000000  0.6666669999999968  0.3464250593278919
  0.3333330000000032  0.6666669999999968  0.4490532933591780
  0.6666669999999968  0.0000000000000000  0.4490532933591780
  0.0000000000000000  0.3333330000000032  0.4490532933591780
 
  0.00000000E+00  0.00000000E+00  0.00000000E+00
  0.00000000E+00  0.00000000E+00  0.00000000E+00
  0.00000000E+00  0.00000000E+00  0.00000000E+00
  0.00000000E+00  0.00000000E+00  0.00000000E+00
  0.00000000E+00  0.00000000E+00  0.00000000E+00
  0.00000000E+00  0.00000000E+00  0.00000000E+00
  0.00000000E+00  0.00000000E+00  0.00000000E+00
  0.00000000E+00  0.00000000E+00  0.00000000E+00
  0.00000000E+00  0.00000000E+00  0.00000000E+00
  0.00000000E+00  0.00000000E+00  0.00000000E+00
  0.00000000E+00  0.00000000E+00  0.00000000E+00
  0.00000000E+00  0.00000000E+00  0.00000000E+00
  0.00000000E+00  0.00000000E+00  0.00000000E+00
  0.00000000E+00  0.00000000E+00  0.00000000E+00
  0.00000000E+00  0.00000000E+00  0.00000000E+00
  0.00000000E+00  0.00000000E+00  0.00000000E+00
  0.00000000E+00  0.00000000E+00  0.00000000E+00
  0.00000000E+00  0.00000000E+00  0.00000000E+00
