Hf3 W4 Se6 S8                           
   1.00000000000000     
     0.0000000000000000   -6.4520999999999997    0.0000000000000000
    -5.5876830000000002   -3.2260499999999999    0.0000000000000000
     0.0000000000000000    0.0000000000000000  -30.0000000000000000
   Hf   W    Se   S 
     3     4     6     8
Direct
  0.0000000000000000  0.0000000000000000  0.6064700050847946
  0.3333330000000032  0.3333330000000032  0.6067061482159914
  0.6666669999999968  0.6666669999999968  0.6076096674218974
  0.4994848273207495  0.5006814925581438  0.3922377270198396
  0.5006814925581438  0.9998336801211067  0.3922377270198396
  0.0000000000000000  0.0000000000000000  0.3921709710756360
  0.9998336801211067  0.4994848273207495  0.3922377270198396
  0.6668596128053395  0.3319931900643525  0.6598064999902178
  0.0011471971303223  0.6668596128053395  0.6598064999902178
  0.6664244337068936  0.9984001964081131  0.5542587889866439
  0.3351753698849933  0.6664244337068936  0.5542587889866439
  0.9984001964081131  0.3351753698849933  0.5542587889866439
  0.3319931900643525  0.0011471971303223  0.6598064999902178
  0.6667234476041202  0.1678921211760951  0.4438274386214118
  0.1672483302559371  0.1662311720193941  0.3404267455558241
  0.1662311720193941  0.6665214977246521  0.3404267455558241
  0.6665214977246521  0.1672483302559371  0.3404267455558241
  0.6666669999999968  0.6666669999999968  0.3404843563734232
  0.1678921211760951  0.1653854312197680  0.4438274386214118
  0.1653854312197680  0.6667234476041202  0.4438274386214118
  0.6666669999999968  0.6666669999999968  0.4441072513064768
 
  0.00000000E+00  0.00000000E+00  0.00000000E+00
  0.00000000E+00  0.00000000E+00  0.00000000E+00
  0.00000000E+00  0.00000000E+00  0.00000000E+00
  0.00000000E+00  0.00000000E+00  0.00000000E+00
  0.00000000E+00  0.00000000E+00  0.00000000E+00
  0.00000000E+00  0.00000000E+00  0.00000000E+00
  0.00000000E+00  0.00000000E+00  0.00000000E+00
  0.00000000E+00  0.00000000E+00  0.00000000E+00
  0.00000000E+00  0.00000000E+00  0.00000000E+00
  0.00000000E+00  0.00000000E+00  0.00000000E+00
  0.00000000E+00  0.00000000E+00  0.00000000E+00
  0.00000000E+00  0.00000000E+00  0.00000000E+00
  0.00000000E+00  0.00000000E+00  0.00000000E+00
  0.00000000E+00  0.00000000E+00  0.00000000E+00
  0.00000000E+00  0.00000000E+00  0.00000000E+00
  0.00000000E+00  0.00000000E+00  0.00000000E+00
  0.00000000E+00  0.00000000E+00  0.00000000E+00
  0.00000000E+00  0.00000000E+00  0.00000000E+00
  0.00000000E+00  0.00000000E+00  0.00000000E+00
  0.00000000E+00  0.00000000E+00  0.00000000E+00
  0.00000000E+00  0.00000000E+00  0.00000000E+00
