name                                    
   1.00000000000000     
     3.3673741651000002    0.0000000000000000    0.0000000000000000
    -1.6836870826000001    2.9162315710000000    0.0000000000000000
     0.0000000000000000    0.0000000000000000   25.0000000000000000
   Zr   O 
     1     2
Direct
 -0.0000000000000000  0.0000000000000000  0.5000000000000000
  0.6666666667000030  0.3333333332999970  0.4630239391275463
  0.3333333332999970  0.6666666667000030  0.5369760608724538
 
  0.00000000E+00  0.00000000E+00  0.00000000E+00
  0.00000000E+00  0.00000000E+00  0.00000000E+00
  0.00000000E+00  0.00000000E+00  0.00000000E+00
