name                                    
   1.00000000000000     
     3.3606478437999998    0.0000000000000000    0.0000000000000000
    -1.6803239218999999    2.9104064058999999    0.0000000000000000
     0.0000000000000000    0.0000000000000000   25.0000000000000000
   Cr   Te
     1     2
Direct
  0.0000000000000000  0.0000000000000000  0.5000000000000000
  0.6666666667000030  0.3333333332999970  0.4302044375761477
  0.6666666667000030  0.3333333332999970  0.5697955624238523
 
  0.00000000E+00  0.00000000E+00  0.00000000E+00
  0.00000000E+00  0.00000000E+00  0.00000000E+00
  0.00000000E+00  0.00000000E+00  0.00000000E+00
