name                                    
   1.00000000000000     
     3.9297847306999998    0.0000000000000000    0.0000000000000000
    -1.9648923653999999    3.4032934082000001    0.0000000000000000
     0.0000000000000000    0.0000000000000000   25.0000000000000000
   Hf   Te
     1     2
Direct
  0.0000000000000000  0.0000000000000000  0.5000000000000000
  0.6666666667000030  0.3333333332999970  0.4264518394321815
  0.6666666667000030  0.3333333332999970  0.5735481605678185
 
  0.00000000E+00  0.00000000E+00  0.00000000E+00
  0.00000000E+00  0.00000000E+00  0.00000000E+00
  0.00000000E+00  0.00000000E+00  0.00000000E+00
