name                                    
   1.00000000000000     
     2.8553655729999998    0.0000000000000000    0.0000000000000000
    -1.4276827864999999    2.4728191232999999    0.0000000000000000
     0.0000000000000000    0.0000000000000000   25.0000000000000000
   Ni   O 
     1     2
Direct
 -0.0000000000000000  0.0000000000000000  0.5000000000000000
  0.6666666667000030  0.3333333332999970  0.4627867307022965
  0.3333333332999970  0.6666666667000030  0.5372132692977035
 
  0.00000000E+00  0.00000000E+00  0.00000000E+00
  0.00000000E+00  0.00000000E+00  0.00000000E+00
  0.00000000E+00  0.00000000E+00  0.00000000E+00
