Ti4 Pd3 Se6 S8                          
   1.00000000000000     
    -3.2872309999999998   -5.6936510000000000    0.0000000000000000
    -6.5744619999999996    0.0000000000000000    0.0000000000000000
     0.0000000000000000    0.0000000000000000  -30.0000000000000000
   Ti   Pd   Se   S 
     4     3     6     8
Direct
  0.9993588316465321  0.5014489716006665  0.4002815738804841
  0.5014489716006665  0.4991921967527944  0.4002815738804841
  0.4991921967527944  0.9993588316465321  0.4002815738804841
  0.0000000000000000  0.0000000000000000  0.4053584684847706
  0.0000000000000000  0.0000000000000000  0.5870979954233064
  0.6666669999999968  0.6666669999999968  0.5895218360738497
  0.3333330000000032  0.3333330000000032  0.5873675976809238
  0.9956016737135798  0.6661420975824868  0.5460813648289289
  0.3285419312558986  0.6671524373610751  0.6307452129723998
  0.6671524373610751  0.0043056313830263  0.6307452129723998
  0.0043056313830263  0.3285419312558986  0.6307452129723998
  0.3382562287039335  0.9956016737135798  0.5460813648289289
  0.6661420975824868  0.3382562287039335  0.5460813648289289
  0.6643166038029946  0.1642035946574865  0.4525254477993741
  0.1648829148374205  0.1656667071113489  0.3516611675149548
  0.1656667071113489  0.6694513780512281  0.3516611675149548
  0.6694513780512281  0.1648829148374205  0.3516611675149548
  0.6666669999999968  0.6666669999999968  0.3504792092634403
  0.1642035946574865  0.1714808015395235  0.4525254477993741
  0.1714808015395235  0.6643166038029946  0.4525254477993741
  0.6666669999999968  0.6666669999999968  0.4515415920853130
 
  0.00000000E+00  0.00000000E+00  0.00000000E+00
  0.00000000E+00  0.00000000E+00  0.00000000E+00
  0.00000000E+00  0.00000000E+00  0.00000000E+00
  0.00000000E+00  0.00000000E+00  0.00000000E+00
  0.00000000E+00  0.00000000E+00  0.00000000E+00
  0.00000000E+00  0.00000000E+00  0.00000000E+00
  0.00000000E+00  0.00000000E+00  0.00000000E+00
  0.00000000E+00  0.00000000E+00  0.00000000E+00
  0.00000000E+00  0.00000000E+00  0.00000000E+00
  0.00000000E+00  0.00000000E+00  0.00000000E+00
  0.00000000E+00  0.00000000E+00  0.00000000E+00
  0.00000000E+00  0.00000000E+00  0.00000000E+00
  0.00000000E+00  0.00000000E+00  0.00000000E+00
  0.00000000E+00  0.00000000E+00  0.00000000E+00
  0.00000000E+00  0.00000000E+00  0.00000000E+00
  0.00000000E+00  0.00000000E+00  0.00000000E+00
  0.00000000E+00  0.00000000E+00  0.00000000E+00
  0.00000000E+00  0.00000000E+00  0.00000000E+00
  0.00000000E+00  0.00000000E+00  0.00000000E+00
  0.00000000E+00  0.00000000E+00  0.00000000E+00
  0.00000000E+00  0.00000000E+00  0.00000000E+00
