Sn3 Pb4 Se6 O8                          
   1.00000000000000     
    -3.3682569999999998   -5.8339930000000004    0.0000000000000000
    -6.7365149999999998    0.0000000000000000    0.0000000000000000
     0.0000000000000000    0.0000000000000000  -30.0000000000000000
   Sn   Pb   Se   O 
     3     4     6     8
Direct
  0.6666669999999968  0.6666669999999968  0.3990582844409261
  0.3333330000000032  0.3333330000000032  0.3994934895966153
  0.0000000000000000  0.0000000000000000  0.3993782663677692
  0.0000000000000000  0.0000000000000000  0.5863804404089521
  0.9997922553306111  0.5003464430773192  0.5860652807525071
  0.4998613015920697  0.9997922553306111  0.5860652807525071
  0.5003464430773192  0.4998613015920697  0.5860652807525071
  0.3355111520294685  0.9976942195853482  0.4519937441873267
  0.6666235468765365  0.0014246744668469  0.3463030032513998
  0.3319517786566166  0.6666235468765365  0.3463030032513998
  0.0014246744668469  0.3319517786566166  0.3463030032513998
  0.9976942195853482  0.6667946283851833  0.4519937441873267
  0.6667946283851833  0.3355111520294685  0.4519937441873267
  0.3333330000000032  0.3333330000000032  0.6221777819763616
  0.3337827544089791  0.8338103888611315  0.6223275689305581
  0.6666669999999968  0.6666669999999968  0.5491147466032089
  0.6671062138869033  0.1646722986738425  0.5494713997469134
  0.1682224874392446  0.6671062138869033  0.5494713997469134
  0.1646722986738425  0.1682224874392446  0.5494713997469134
  0.8324058567298849  0.3337827544089791  0.6223275689305581
  0.8338103888611315  0.8324058567298849  0.6223275689305581
 
  0.00000000E+00  0.00000000E+00  0.00000000E+00
  0.00000000E+00  0.00000000E+00  0.00000000E+00
  0.00000000E+00  0.00000000E+00  0.00000000E+00
  0.00000000E+00  0.00000000E+00  0.00000000E+00
  0.00000000E+00  0.00000000E+00  0.00000000E+00
  0.00000000E+00  0.00000000E+00  0.00000000E+00
  0.00000000E+00  0.00000000E+00  0.00000000E+00
  0.00000000E+00  0.00000000E+00  0.00000000E+00
  0.00000000E+00  0.00000000E+00  0.00000000E+00
  0.00000000E+00  0.00000000E+00  0.00000000E+00
  0.00000000E+00  0.00000000E+00  0.00000000E+00
  0.00000000E+00  0.00000000E+00  0.00000000E+00
  0.00000000E+00  0.00000000E+00  0.00000000E+00
  0.00000000E+00  0.00000000E+00  0.00000000E+00
  0.00000000E+00  0.00000000E+00  0.00000000E+00
  0.00000000E+00  0.00000000E+00  0.00000000E+00
  0.00000000E+00  0.00000000E+00  0.00000000E+00
  0.00000000E+00  0.00000000E+00  0.00000000E+00
  0.00000000E+00  0.00000000E+00  0.00000000E+00
  0.00000000E+00  0.00000000E+00  0.00000000E+00
  0.00000000E+00  0.00000000E+00  0.00000000E+00
