name                                    
   1.00000000000000     
     3.7364896985999998    0.0000000000000000    0.0000000000000000
    -1.8682448492999999    3.2358950000000002    0.0000000000000000
     0.0000000000000000    0.0000000000000000   25.0000000000000000
   Zr   Se
     1     2
Direct
 -0.0000000000000000  0.0000000000000000  0.5000000000000000
  0.6666666667000030  0.3333333332999970  0.4355259010640320
  0.3333333332999970  0.6666666667000030  0.5644740989359680
 
  0.00000000E+00  0.00000000E+00  0.00000000E+00
  0.00000000E+00  0.00000000E+00  0.00000000E+00
  0.00000000E+00  0.00000000E+00  0.00000000E+00
