Sn3 Ge4 Se6 S8                          
   1.00000000000000     
    -3.3942809999999999   -5.8790670000000000    0.0000000000000000
    -6.7885619999999998    0.0000000000000000    0.0000000000000000
     0.0000000000000000    0.0000000000000000  -30.0000000000000000
   Sn   Ge   Se   S 
     3     4     6     8
Direct
  0.6666669999999968  0.6666669999999968  0.3903682761013982
  0.3333330000000032  0.3333330000000032  0.3908340778892736
  0.0000000000000000  0.0000000000000000  0.3908587709424225
  0.0000000000000000  0.0000000000000000  0.6034501427647214
  0.9998595479205150  0.4997799042864415  0.6032441042274144
  0.5003605477930435  0.9998595479205150  0.6032441042274144
  0.4997799042864415  0.5003605477930435  0.6032441042274144
  0.3355155642912919  0.6666939340202589  0.4431365560804252
  0.0013852083859973  0.6665976183820987  0.3381689225460107
  0.6665976183820987  0.3320171732319110  0.3381689225460107
  0.3320171732319110  0.0013852083859973  0.3381689225460107
  0.9977905016884492  0.3355155642912919  0.4431365560804252
  0.6666939340202589  0.9977905016884492  0.4431365560804252
  0.3333330000000032  0.3333330000000032  0.6503590359036764
  0.3336548615469894  0.8321124208062614  0.6503947510592880
  0.6666669999999968  0.6666669999999968  0.5559649056441955
  0.6668466580795140  0.1694514593098617  0.5563112630049574
  0.1637028826106146  0.6668466580795140  0.5563112630049574
  0.1694514593098617  0.1637028826106146  0.5563112630049574
  0.8342317176467517  0.3336548615469894  0.6503947510592880
  0.8321124208062614  0.8342317176467517  0.6503947510592880
 
  0.00000000E+00  0.00000000E+00  0.00000000E+00
  0.00000000E+00  0.00000000E+00  0.00000000E+00
  0.00000000E+00  0.00000000E+00  0.00000000E+00
  0.00000000E+00  0.00000000E+00  0.00000000E+00
  0.00000000E+00  0.00000000E+00  0.00000000E+00
  0.00000000E+00  0.00000000E+00  0.00000000E+00
  0.00000000E+00  0.00000000E+00  0.00000000E+00
  0.00000000E+00  0.00000000E+00  0.00000000E+00
  0.00000000E+00  0.00000000E+00  0.00000000E+00
  0.00000000E+00  0.00000000E+00  0.00000000E+00
  0.00000000E+00  0.00000000E+00  0.00000000E+00
  0.00000000E+00  0.00000000E+00  0.00000000E+00
  0.00000000E+00  0.00000000E+00  0.00000000E+00
  0.00000000E+00  0.00000000E+00  0.00000000E+00
  0.00000000E+00  0.00000000E+00  0.00000000E+00
  0.00000000E+00  0.00000000E+00  0.00000000E+00
  0.00000000E+00  0.00000000E+00  0.00000000E+00
  0.00000000E+00  0.00000000E+00  0.00000000E+00
  0.00000000E+00  0.00000000E+00  0.00000000E+00
  0.00000000E+00  0.00000000E+00  0.00000000E+00
  0.00000000E+00  0.00000000E+00  0.00000000E+00
