Sn1 Mo1 S2 O2                           
   1.00000000000000     
    -1.6019960000000000   -2.7747380000000001    0.0000000000000000
    -3.2039909999999998    0.0000000000000000    0.0000000000000000
     0.0000000000000000    0.0000000000000000  -30.0000000000000000
   Sn   Mo   S    O 
     1     1     2     2
Direct
  0.0000000000000000  0.0000000000000000  0.5881888428198465
  0.0000000000000000  0.0000000000000000  0.3931802291014748
  0.3333330000000032  0.3333330000000032  0.3413583125227646
  0.3333330000000032  0.3333330000000032  0.4448866540116327
  0.3333330000000032  0.3333330000000032  0.5539861049259898
  0.6666669999999968  0.6666669999999968  0.6222678566183006
 
  0.00000000E+00  0.00000000E+00  0.00000000E+00
  0.00000000E+00  0.00000000E+00  0.00000000E+00
  0.00000000E+00  0.00000000E+00  0.00000000E+00
  0.00000000E+00  0.00000000E+00  0.00000000E+00
  0.00000000E+00  0.00000000E+00  0.00000000E+00
  0.00000000E+00  0.00000000E+00  0.00000000E+00
