Ti3 Te6 W3 Se6                          
   1.00000000000000     
     0.0000000000000000   -6.0990760000000002    0.0000000000000000
    -5.2819539999999998   -3.0495380000000001    0.0000000000000000
     0.0000000000000000    0.0000000000000000  -30.0000000000000000
   Ti   Te   W    Se
     3     6     3     6
Direct
  0.0000000000000000  0.0000000000000000  0.6179334798376672
  0.3333330000000032  0.3333330000000032  0.6179334798376672
  0.6666669999999968  0.6666669999999968  0.6179334798376672
  0.0000000000000000  0.3333330000000032  0.4362899683325594
  0.6666669999999968  0.0000000000000000  0.3149851764586487
  0.3333330000000032  0.6666669999999968  0.3149851764586487
  0.0000000000000000  0.3333330000000032  0.3149851764586487
  0.3333330000000032  0.6666669999999968  0.4362899683325594
  0.6666669999999968  0.0000000000000000  0.4362899683325594
  0.0000000000000000  0.0000000000000000  0.3756166064117963
  0.3333330000000032  0.3333330000000032  0.3756166064117963
  0.6666669999999968  0.6666669999999968  0.3756166064117963
  0.0000000000000000  0.3333330000000032  0.6715693728098273
  0.6666669999999968  0.0000000000000000  0.5645313961494978
  0.3333330000000032  0.6666669999999968  0.5645313961494978
  0.0000000000000000  0.3333330000000032  0.5645313961494978
  0.3333330000000032  0.6666669999999968  0.6715693728098273
  0.6666669999999968  0.0000000000000000  0.6715693728098273
 
  0.00000000E+00  0.00000000E+00  0.00000000E+00
  0.00000000E+00  0.00000000E+00  0.00000000E+00
  0.00000000E+00  0.00000000E+00  0.00000000E+00
  0.00000000E+00  0.00000000E+00  0.00000000E+00
  0.00000000E+00  0.00000000E+00  0.00000000E+00
  0.00000000E+00  0.00000000E+00  0.00000000E+00
  0.00000000E+00  0.00000000E+00  0.00000000E+00
  0.00000000E+00  0.00000000E+00  0.00000000E+00
  0.00000000E+00  0.00000000E+00  0.00000000E+00
  0.00000000E+00  0.00000000E+00  0.00000000E+00
  0.00000000E+00  0.00000000E+00  0.00000000E+00
  0.00000000E+00  0.00000000E+00  0.00000000E+00
  0.00000000E+00  0.00000000E+00  0.00000000E+00
  0.00000000E+00  0.00000000E+00  0.00000000E+00
  0.00000000E+00  0.00000000E+00  0.00000000E+00
  0.00000000E+00  0.00000000E+00  0.00000000E+00
  0.00000000E+00  0.00000000E+00  0.00000000E+00
  0.00000000E+00  0.00000000E+00  0.00000000E+00
