Hf4 Ti3 Te6 O8                          
   1.00000000000000     
    -3.2437149999999999   -5.6182790000000002    0.0000000000000000
    -6.4874299999999998    0.0000000000000000    0.0000000000000000
     0.0000000000000000    0.0000000000000000  -30.0000000000000000
   Hf   Ti   Te   O 
     4     3     6     8
Direct
  0.9996714396582149  0.0000008049443281  0.5873349019788279
  0.9996510687720601  0.5000994009436326  0.5868317813215711
  0.4998098768972739  0.9998023674162297  0.5868335708615930
  0.4999514922746684  0.5001137269072018  0.5868397360604405
  0.6666657485761363  0.6666677769660296  0.3851323676898630
  0.3333338259424536  0.3333324671271214  0.3879333723812621
  0.9999997305546984  0.0000008954080641  0.3883747950798480
  0.3375961904565017  0.9962929841706583  0.4461738828921042
  0.0027190938099011  0.6670949134102671  0.3277434208731975
  0.6670951860937606  0.3301855157613502  0.3277435287468293
  0.3301854828252502  0.0027187411238074  0.3277435984759052
  0.9962895035107238  0.6661108697273050  0.4461718509627630
  0.6661104581339217  0.3376010798330498  0.4461725791922007
  0.3331992625010827  0.3333356642476915  0.6189352923424565
  0.3337551440585784  0.8330144828612447  0.6191766138214234
  0.6665384930223865  0.6666633535759772  0.5547200967347408
  0.6671875520111712  0.1653504210488421  0.5550332715559918
  0.1668983669056701  0.6675543671204878  0.5550400657262173
  0.1649985456768803  0.1670862103688151  0.5550419212948938
  0.8326802050116555  0.3341049709676227  0.6191779396872903
  0.8326633333069964  0.8328689860702667  0.6191844123205499
 
  0.00000000E+00  0.00000000E+00  0.00000000E+00
  0.00000000E+00  0.00000000E+00  0.00000000E+00
  0.00000000E+00  0.00000000E+00  0.00000000E+00
  0.00000000E+00  0.00000000E+00  0.00000000E+00
  0.00000000E+00  0.00000000E+00  0.00000000E+00
  0.00000000E+00  0.00000000E+00  0.00000000E+00
  0.00000000E+00  0.00000000E+00  0.00000000E+00
  0.00000000E+00  0.00000000E+00  0.00000000E+00
  0.00000000E+00  0.00000000E+00  0.00000000E+00
  0.00000000E+00  0.00000000E+00  0.00000000E+00
  0.00000000E+00  0.00000000E+00  0.00000000E+00
  0.00000000E+00  0.00000000E+00  0.00000000E+00
  0.00000000E+00  0.00000000E+00  0.00000000E+00
  0.00000000E+00  0.00000000E+00  0.00000000E+00
  0.00000000E+00  0.00000000E+00  0.00000000E+00
  0.00000000E+00  0.00000000E+00  0.00000000E+00
  0.00000000E+00  0.00000000E+00  0.00000000E+00
  0.00000000E+00  0.00000000E+00  0.00000000E+00
  0.00000000E+00  0.00000000E+00  0.00000000E+00
  0.00000000E+00  0.00000000E+00  0.00000000E+00
  0.00000000E+00  0.00000000E+00  0.00000000E+00
