Hf3 Pt3 Se6 S6                          
   1.00000000000000     
    -5.4376860000000002   -3.1394489999999999    0.0000000000000000
    -5.4376860000000002    3.1394489999999999    0.0000000000000000
     0.0000000000000000    0.0000000000000000  -30.0000000000000000
   Hf   Pt   Se   S 
     3     3     6     6
Direct
  0.6666669999999968  0.6666669999999968  0.3988925232207166
  0.3333330000000032  0.3333330000000032  0.3988925232207166
  0.0000000000000000  0.0000000000000000  0.3988925232207166
  0.0000000000000000  0.0000000000000000  0.5859937661965944
  0.3333330000000032  0.3333330000000032  0.5859937661965944
  0.6666669999999968  0.6666669999999968  0.5859937661965944
  0.3333330000000032  0.0000000000000000  0.4548384836448349
  0.0000000000000000  0.6666669999999968  0.3425788843590070
  0.6666669999999968  0.3333330000000032  0.3425788843590070
  0.3333330000000032  0.0000000000000000  0.3425788843590070
  0.0000000000000000  0.6666669999999968  0.4548384836448349
  0.6666669999999968  0.3333330000000032  0.4548384836448349
  0.6666669999999968  0.3333330000000032  0.6260591228711121
  0.3333330000000032  0.0000000000000000  0.6260591228711121
  0.6666669999999968  0.0000000000000000  0.5466372197077263
  0.3333330000000032  0.6666669999999968  0.5466372197077263
  0.0000000000000000  0.3333330000000032  0.5466372197077263
  0.0000000000000000  0.6666669999999968  0.6260591228711121
 
  0.00000000E+00  0.00000000E+00  0.00000000E+00
  0.00000000E+00  0.00000000E+00  0.00000000E+00
  0.00000000E+00  0.00000000E+00  0.00000000E+00
  0.00000000E+00  0.00000000E+00  0.00000000E+00
  0.00000000E+00  0.00000000E+00  0.00000000E+00
  0.00000000E+00  0.00000000E+00  0.00000000E+00
  0.00000000E+00  0.00000000E+00  0.00000000E+00
  0.00000000E+00  0.00000000E+00  0.00000000E+00
  0.00000000E+00  0.00000000E+00  0.00000000E+00
  0.00000000E+00  0.00000000E+00  0.00000000E+00
  0.00000000E+00  0.00000000E+00  0.00000000E+00
  0.00000000E+00  0.00000000E+00  0.00000000E+00
  0.00000000E+00  0.00000000E+00  0.00000000E+00
  0.00000000E+00  0.00000000E+00  0.00000000E+00
  0.00000000E+00  0.00000000E+00  0.00000000E+00
  0.00000000E+00  0.00000000E+00  0.00000000E+00
  0.00000000E+00  0.00000000E+00  0.00000000E+00
  0.00000000E+00  0.00000000E+00  0.00000000E+00
