name                                    
   1.00000000000000     
     3.3193957738000002    0.0000000000000000    0.0000000000000000
    -1.6596978869000001    2.8746810652999999    0.0000000000000000
     0.0000000000000000    0.0000000000000000   25.0000000000000000
   W    Se
     1     2
Direct
  0.0000000000000000  0.0000000000000000  0.5000000000000000
  0.6666666667000030  0.3333333332999970  0.4329502838418477
  0.6666666667000030  0.3333333332999970  0.5670497161581523
 
  0.00000000E+00  0.00000000E+00  0.00000000E+00
  0.00000000E+00  0.00000000E+00  0.00000000E+00
  0.00000000E+00  0.00000000E+00  0.00000000E+00
