Zr1 Ti1 S4                              
   1.00000000000000     
    -1.7737760000000000   -3.0722700000000001    0.0000000000000000
    -3.5475520000000000    0.0000000000000000    0.0000000000000000
     0.0000000000000000    0.0000000000000000  -30.0000000000000000
   Zr   Ti   S 
     1     1     4
Direct
  0.0000000000000000  0.0000000000000000  0.4030786546562197
  0.0000000000000000  0.0000000000000000  0.5959873270952230
  0.3333330000000032  0.3333330000000032  0.5508698981601299
  0.6666669999999968  0.6666669999999968  0.6413875415524402
  0.3333330000000032  0.3333330000000032  0.3526913893770711
  0.6666669999999968  0.6666669999999968  0.4533221891589179
 
  0.00000000E+00  0.00000000E+00  0.00000000E+00
  0.00000000E+00  0.00000000E+00  0.00000000E+00
  0.00000000E+00  0.00000000E+00  0.00000000E+00
  0.00000000E+00  0.00000000E+00  0.00000000E+00
  0.00000000E+00  0.00000000E+00  0.00000000E+00
  0.00000000E+00  0.00000000E+00  0.00000000E+00
