name                                    
   1.00000000000000     
     2.8533176769000002    0.0000000000000000    0.0000000000000000
    -1.4266588385000001    2.4710455933000000    0.0000000000000000
     0.0000000000000000    0.0000000000000000   25.0000000000000000
   W    O 
     1     2
Direct
 -0.0000000000000000  0.0000000000000000  0.5000000000000000
  0.6666666667000030  0.3333333332999970  0.4506397045490211
  0.6666666667000030  0.3333333332999970  0.5493602954509789
 
  0.00000000E+00  0.00000000E+00  0.00000000E+00
  0.00000000E+00  0.00000000E+00  0.00000000E+00
  0.00000000E+00  0.00000000E+00  0.00000000E+00
