name                                    
   1.00000000000000     
     3.1262207369000001    0.0000000000000000    0.0000000000000000
    -1.5631103684000001    2.7073865760000002    0.0000000000000000
     0.0000000000000000    0.0000000000000000   25.0000000000000000
   Mo   S 
     1     2
Direct
  0.0000000000000000  0.0000000000000000  0.5000000000000000
  0.6666666667000030  0.3333333332999970  0.4366461646261073
  0.6666666667000030  0.3333333332999970  0.5633538353738927
 
  0.00000000E+00  0.00000000E+00  0.00000000E+00
  0.00000000E+00  0.00000000E+00  0.00000000E+00
  0.00000000E+00  0.00000000E+00  0.00000000E+00
