name                                    
   1.00000000000000     
     3.1183066818000000    0.0000000000000000    0.0000000000000000
    -1.5591533409000000    2.7005328032000002    0.0000000000000000
     0.0000000000000000    0.0000000000000000   25.0000000000000000
   Pd   O 
     1     2
Direct
  0.0000000000000000  0.0000000000000000  0.5000000000000000
  0.6666666667000030  0.3333333332999970  0.4617942331393863
  0.3333333332999970  0.6666666667000030  0.5382057668606137
 
  0.00000000E+00  0.00000000E+00  0.00000000E+00
  0.00000000E+00  0.00000000E+00  0.00000000E+00
  0.00000000E+00  0.00000000E+00  0.00000000E+00
