Hf3 Sn3 Se6 S6                          
   1.00000000000000     
     0.0000000000000000   -6.5079320000000003    0.0000000000000000
    -5.6360340000000004   -3.2539660000000001    0.0000000000000000
     0.0000000000000000    0.0000000000000000  -30.0000000000000000
   Hf   Sn   Se   S 
     3     3     6     6
Direct
  0.0000000000000000  0.0000000000000000  0.6082747879862751
  0.3333330000000032  0.3333330000000032  0.6082747879862751
  0.6666669999999968  0.6666669999999968  0.6082747879862751
  0.6666669999999968  0.6666669999999968  0.3868576910675401
  0.3333330000000032  0.3333330000000032  0.3868576910675401
  0.0000000000000000  0.0000000000000000  0.3868576910675401
  0.3333330000000032  0.0000000000000000  0.4411117293045663
  0.6666669999999968  0.0000000000000000  0.3325887733207651
  0.3333330000000032  0.6666669999999968  0.3325887733207651
  0.0000000000000000  0.3333330000000032  0.3325887733207651
  0.0000000000000000  0.6666669999999968  0.4411117293045663
  0.6666669999999968  0.3333330000000032  0.4411117293045663
  0.6666669999999968  0.0000000000000000  0.6544584627785497
  0.3333330000000032  0.6666669999999968  0.6544584627785497
  0.0000000000000000  0.6666669999999968  0.5621615555422963
  0.6666669999999968  0.3333330000000032  0.5621615555422963
  0.3333330000000032  0.0000000000000000  0.5621615555422963
  0.0000000000000000  0.3333330000000032  0.6544584627785497
 
  0.00000000E+00  0.00000000E+00  0.00000000E+00
  0.00000000E+00  0.00000000E+00  0.00000000E+00
  0.00000000E+00  0.00000000E+00  0.00000000E+00
  0.00000000E+00  0.00000000E+00  0.00000000E+00
  0.00000000E+00  0.00000000E+00  0.00000000E+00
  0.00000000E+00  0.00000000E+00  0.00000000E+00
  0.00000000E+00  0.00000000E+00  0.00000000E+00
  0.00000000E+00  0.00000000E+00  0.00000000E+00
  0.00000000E+00  0.00000000E+00  0.00000000E+00
  0.00000000E+00  0.00000000E+00  0.00000000E+00
  0.00000000E+00  0.00000000E+00  0.00000000E+00
  0.00000000E+00  0.00000000E+00  0.00000000E+00
  0.00000000E+00  0.00000000E+00  0.00000000E+00
  0.00000000E+00  0.00000000E+00  0.00000000E+00
  0.00000000E+00  0.00000000E+00  0.00000000E+00
  0.00000000E+00  0.00000000E+00  0.00000000E+00
  0.00000000E+00  0.00000000E+00  0.00000000E+00
  0.00000000E+00  0.00000000E+00  0.00000000E+00
