name                                    
   1.00000000000000     
     3.5087798656999998    0.0000000000000000    0.0000000000000000
    -1.7543899328999999    3.0386924999999998    0.0000000000000000
     0.0000000000000000    0.0000000000000000   25.0000000000000000
   Cr   Te
     1     2
Direct
  0.0000000000000000  0.0000000000000000  0.5000000000000000
  0.6666666667000030  0.3333333332999970  0.4321078290944484
  0.6666666667000030  0.3333333332999970  0.5678921709055516
 
  0.00000000E+00  0.00000000E+00  0.00000000E+00
  0.00000000E+00  0.00000000E+00  0.00000000E+00
  0.00000000E+00  0.00000000E+00  0.00000000E+00
