name                                    
   1.00000000000000     
     3.0933791753000000    0.0000000000000000    0.0000000000000000
    -1.5466895877000000    2.6789449493999999    0.0000000000000000
     0.0000000000000000    0.0000000000000000   25.0000000000000000
   Pd   O 
     1     2
Direct
  0.0000000000000000  0.0000000000000000  0.5000000000000000
  0.6666666667000030  0.3333333332999970  0.4612225922270879
  0.3333333332999970  0.6666666667000030  0.5387774077729121
 
  0.00000000E+00  0.00000000E+00  0.00000000E+00
  0.00000000E+00  0.00000000E+00  0.00000000E+00
  0.00000000E+00  0.00000000E+00  0.00000000E+00
