Hf3 Ti3 Se6 S6                          
   1.00000000000000     
    -5.2766880000000000   -3.0464970000000000    0.0000000000000000
    -5.2766880000000000    3.0464970000000000    0.0000000000000000
     0.0000000000000000    0.0000000000000000  -30.0000000000000000
   Hf   Ti   Se   S 
     3     3     6     6
Direct
  0.0000000000000000  0.0000000000000000  0.6117797129253262
  0.3333330000000032  0.3333330000000032  0.6117797129253262
  0.6666669999999968  0.6666669999999968  0.6117797129253262
  0.6666669999999968  0.6666669999999968  0.3865465682729976
  0.3333330000000032  0.3333330000000032  0.3865465682729976
  0.0000000000000000  0.0000000000000000  0.3865465682729976
  0.3333330000000032  0.0000000000000000  0.4399021156112539
  0.0000000000000000  0.6666669999999968  0.3328132089700730
  0.6666669999999968  0.3333330000000032  0.3328132089700730
  0.3333330000000032  0.0000000000000000  0.3328132089700730
  0.0000000000000000  0.6666669999999968  0.4399021156112539
  0.6666669999999968  0.3333330000000032  0.4399021156112539
  0.6666669999999968  0.3333330000000032  0.6640442676324625
  0.3333330000000032  0.0000000000000000  0.6640442676324625
  0.0000000000000000  0.6666669999999968  0.5597151265878821
  0.6666669999999968  0.3333330000000032  0.5597151265878821
  0.3333330000000032  0.0000000000000000  0.5597151265878821
  0.0000000000000000  0.6666669999999968  0.6640442676324625
 
  0.00000000E+00  0.00000000E+00  0.00000000E+00
  0.00000000E+00  0.00000000E+00  0.00000000E+00
  0.00000000E+00  0.00000000E+00  0.00000000E+00
  0.00000000E+00  0.00000000E+00  0.00000000E+00
  0.00000000E+00  0.00000000E+00  0.00000000E+00
  0.00000000E+00  0.00000000E+00  0.00000000E+00
  0.00000000E+00  0.00000000E+00  0.00000000E+00
  0.00000000E+00  0.00000000E+00  0.00000000E+00
  0.00000000E+00  0.00000000E+00  0.00000000E+00
  0.00000000E+00  0.00000000E+00  0.00000000E+00
  0.00000000E+00  0.00000000E+00  0.00000000E+00
  0.00000000E+00  0.00000000E+00  0.00000000E+00
  0.00000000E+00  0.00000000E+00  0.00000000E+00
  0.00000000E+00  0.00000000E+00  0.00000000E+00
  0.00000000E+00  0.00000000E+00  0.00000000E+00
  0.00000000E+00  0.00000000E+00  0.00000000E+00
  0.00000000E+00  0.00000000E+00  0.00000000E+00
  0.00000000E+00  0.00000000E+00  0.00000000E+00
