Hf7 Mo12 S14 O24                        
   1.00000000000000     
    -8.2876290000000008   -4.7848649999999999    0.0000000000000000
    -8.2876290000000008    4.7848649999999999    0.0000000000000000
     0.0000000000000000    0.0000000000000000  -30.0000000000000000
   Hf   Mo   S    O 
     7    12    14    24
Direct
  0.0000000000000000  0.0000000000000000  0.5944558202302872
  0.1427429985241986  0.2855291450209592  0.6039916733463926
  0.5717278564548423  0.1427429985241986  0.6039916733463926
  0.2855291450209592  0.5717278564548423  0.6039916733463926
  0.7145822370862547  0.4287963025406825  0.5957215043825315
  0.4287963025406825  0.8566214603730629  0.5957215043825315
  0.8566214603730629  0.7145822370862547  0.5957215043825315
  0.1665171699970287  0.1668458517250215  0.4074227457240625
  0.1668458517250215  0.6666379782779401  0.4074227457240625
  0.3333330000000032  0.3333330000000032  0.4069532904145916
  0.4997672524340686  0.0000609836882290  0.4074005021310967
  0.8333893278337072  0.3333209306574929  0.4077010845339544
  0.6666379782779401  0.1665171699970287  0.4074227457240625
  0.6666669999999968  0.6666669999999968  0.4077869364764695
  0.0000609836882290  0.5001717638777023  0.4074005021310967
  0.8332887415088095  0.8333893278337072  0.4077010845339544
  0.3333209306574929  0.8332887415088095  0.4077010845339544
  0.0000000000000000  0.0000000000000000  0.4078275753664542
  0.5001717638777023  0.4997672524340686  0.4074005021310967
  0.3815180881973887  0.0929791838959702  0.6524688627736381
  0.6666669999999968  0.6666669999999968  0.6476382287468283
  0.9563010290518505  0.2393438948919524  0.5470158716319418
  0.5215434460733235  0.3813507581707185  0.5500053010975492
  0.2393438948919524  0.8043550760562042  0.5470158716319418
  0.6666669999999968  0.6666669999999968  0.5450506926983820
  0.3813507581707185  0.0971057957559580  0.5500053010975492
  0.0971057957559580  0.5215434460733235  0.5500053010975492
  0.9482975931287854  0.2364247098718550  0.6494841653429830
  0.0929791838959702  0.5255027279066411  0.6524688627736381
  0.5255027279066411  0.3815180881973887  0.6524688627736381
  0.2364247098718550  0.8152776969993738  0.6494841653429830
  0.8043550760562042  0.9563010290518505  0.5470158716319418
  0.8152776969993738  0.9482975931287854  0.6494841653429830
  0.1675445957759081  0.4994517174464264  0.4489595565584139
  0.3330036867776656  0.1675445957759081  0.4489595565584139
  0.3338251770946457  0.6657419409086316  0.4493078878039469
  0.4994517174464264  0.3330036867776656  0.4489595565584139
  0.4996434553772673  0.8338498915109014  0.4495295452217007
  0.6665066531118313  0.4996434553772673  0.4495295452217007
  0.8327866564323898  0.1667729975208871  0.4495436624423803
  0.1667729975208871  0.0004403460467231  0.4495436624423803
  0.8338498915109014  0.6665066531118313  0.4495295452217007
  0.6657419409086316  0.0004328819967299  0.4493078878039469
  0.9997779584481563  0.8337813633064712  0.3658530241378202
  0.5006530519912289  0.3331375316307259  0.3653614580206295
  0.8328845088278172  0.6670685165125505  0.3658169192221763
  0.8337813633064712  0.1664406782453725  0.3658530241378202
  0.6670685165125505  0.5000469746596323  0.3658169192221763
  0.5000469746596323  0.8328845088278172  0.3658169192221763
  0.6669398878879633  0.9995545840618547  0.3656617209844413
  0.3335055280501891  0.6669398878879633  0.3656617209844413
  0.3331375316307259  0.1662094163780452  0.3653614580206295
  0.1662094163780452  0.5006530519912289  0.3653614580206295
  0.1664406782453725  0.9997779584481563  0.3658530241378202
  0.0004328819967299  0.3338251770946457  0.4493078878039469
  0.9995545840618547  0.3335055280501891  0.3656617209844413
  0.0004403460467231  0.8327866564323898  0.4495436624423803
 
  0.00000000E+00  0.00000000E+00  0.00000000E+00
  0.00000000E+00  0.00000000E+00  0.00000000E+00
  0.00000000E+00  0.00000000E+00  0.00000000E+00
  0.00000000E+00  0.00000000E+00  0.00000000E+00
  0.00000000E+00  0.00000000E+00  0.00000000E+00
  0.00000000E+00  0.00000000E+00  0.00000000E+00
  0.00000000E+00  0.00000000E+00  0.00000000E+00
  0.00000000E+00  0.00000000E+00  0.00000000E+00
  0.00000000E+00  0.00000000E+00  0.00000000E+00
  0.00000000E+00  0.00000000E+00  0.00000000E+00
  0.00000000E+00  0.00000000E+00  0.00000000E+00
  0.00000000E+00  0.00000000E+00  0.00000000E+00
  0.00000000E+00  0.00000000E+00  0.00000000E+00
  0.00000000E+00  0.00000000E+00  0.00000000E+00
  0.00000000E+00  0.00000000E+00  0.00000000E+00
  0.00000000E+00  0.00000000E+00  0.00000000E+00
  0.00000000E+00  0.00000000E+00  0.00000000E+00
  0.00000000E+00  0.00000000E+00  0.00000000E+00
  0.00000000E+00  0.00000000E+00  0.00000000E+00
  0.00000000E+00  0.00000000E+00  0.00000000E+00
  0.00000000E+00  0.00000000E+00  0.00000000E+00
  0.00000000E+00  0.00000000E+00  0.00000000E+00
  0.00000000E+00  0.00000000E+00  0.00000000E+00
  0.00000000E+00  0.00000000E+00  0.00000000E+00
  0.00000000E+00  0.00000000E+00  0.00000000E+00
  0.00000000E+00  0.00000000E+00  0.00000000E+00
  0.00000000E+00  0.00000000E+00  0.00000000E+00
  0.00000000E+00  0.00000000E+00  0.00000000E+00
  0.00000000E+00  0.00000000E+00  0.00000000E+00
  0.00000000E+00  0.00000000E+00  0.00000000E+00
  0.00000000E+00  0.00000000E+00  0.00000000E+00
  0.00000000E+00  0.00000000E+00  0.00000000E+00
  0.00000000E+00  0.00000000E+00  0.00000000E+00
  0.00000000E+00  0.00000000E+00  0.00000000E+00
  0.00000000E+00  0.00000000E+00  0.00000000E+00
  0.00000000E+00  0.00000000E+00  0.00000000E+00
  0.00000000E+00  0.00000000E+00  0.00000000E+00
  0.00000000E+00  0.00000000E+00  0.00000000E+00
  0.00000000E+00  0.00000000E+00  0.00000000E+00
  0.00000000E+00  0.00000000E+00  0.00000000E+00
  0.00000000E+00  0.00000000E+00  0.00000000E+00
  0.00000000E+00  0.00000000E+00  0.00000000E+00
  0.00000000E+00  0.00000000E+00  0.00000000E+00
  0.00000000E+00  0.00000000E+00  0.00000000E+00
  0.00000000E+00  0.00000000E+00  0.00000000E+00
  0.00000000E+00  0.00000000E+00  0.00000000E+00
  0.00000000E+00  0.00000000E+00  0.00000000E+00
  0.00000000E+00  0.00000000E+00  0.00000000E+00
  0.00000000E+00  0.00000000E+00  0.00000000E+00
  0.00000000E+00  0.00000000E+00  0.00000000E+00
  0.00000000E+00  0.00000000E+00  0.00000000E+00
  0.00000000E+00  0.00000000E+00  0.00000000E+00
  0.00000000E+00  0.00000000E+00  0.00000000E+00
  0.00000000E+00  0.00000000E+00  0.00000000E+00
  0.00000000E+00  0.00000000E+00  0.00000000E+00
  0.00000000E+00  0.00000000E+00  0.00000000E+00
  0.00000000E+00  0.00000000E+00  0.00000000E+00
