Zr3 Ni3 Se12                            
   1.00000000000000     
    -5.4323540000000001   -3.1363710000000000    0.0000000000000000
    -5.4323540000000001    3.1363710000000000    0.0000000000000000
     0.0000000000000000    0.0000000000000000  -30.0000000000000000
   Zr   Ni   Se
     3     3    12
Direct
  0.6666669999999968  0.6666669999999968  0.4009779227273214
  0.3333330000000032  0.3333330000000032  0.4009779227273214
  0.0000000000000000  0.0000000000000000  0.4009779227273214
  0.0000000000000000  0.0000000000000000  0.5834583340458437
  0.3333330000000032  0.3333330000000032  0.5834583340458437
  0.6666669999999968  0.6666669999999968  0.5834583340458437
  0.3333330000000032  0.0000000000000000  0.4584679054480105
  0.0000000000000000  0.6666669999999968  0.3446904967725857
  0.6666669999999968  0.3333330000000032  0.3446904967725857
  0.3333330000000032  0.0000000000000000  0.3446904967725857
  0.0000000000000000  0.6666669999999968  0.6237954669389154
  0.6666669999999968  0.3333330000000032  0.6237954669389154
  0.3333330000000032  0.0000000000000000  0.6237954669389154
  0.6666669999999968  0.0000000000000000  0.5445488740673241
  0.3333330000000032  0.6666669999999968  0.5445488740673241
  0.0000000000000000  0.3333330000000032  0.5445488740673241
  0.6666669999999968  0.3333330000000032  0.4584679054480105
  0.0000000000000000  0.6666669999999968  0.4584679054480105
 
  0.00000000E+00  0.00000000E+00  0.00000000E+00
  0.00000000E+00  0.00000000E+00  0.00000000E+00
  0.00000000E+00  0.00000000E+00  0.00000000E+00
  0.00000000E+00  0.00000000E+00  0.00000000E+00
  0.00000000E+00  0.00000000E+00  0.00000000E+00
  0.00000000E+00  0.00000000E+00  0.00000000E+00
  0.00000000E+00  0.00000000E+00  0.00000000E+00
  0.00000000E+00  0.00000000E+00  0.00000000E+00
  0.00000000E+00  0.00000000E+00  0.00000000E+00
  0.00000000E+00  0.00000000E+00  0.00000000E+00
  0.00000000E+00  0.00000000E+00  0.00000000E+00
  0.00000000E+00  0.00000000E+00  0.00000000E+00
  0.00000000E+00  0.00000000E+00  0.00000000E+00
  0.00000000E+00  0.00000000E+00  0.00000000E+00
  0.00000000E+00  0.00000000E+00  0.00000000E+00
  0.00000000E+00  0.00000000E+00  0.00000000E+00
  0.00000000E+00  0.00000000E+00  0.00000000E+00
  0.00000000E+00  0.00000000E+00  0.00000000E+00
