Pd4 Pt3 S6 O8                           
   1.00000000000000     
     0.0000000000000000   -6.1878840000000004    0.0000000000000000
    -5.3588649999999998   -3.0939420000000002    0.0000000000000000
     0.0000000000000000    0.0000000000000000  -30.0000000000000000
   Pd   Pt   S    O 
     4     3     6     8
Direct
  0.0000000000000000  0.0000000000000000  0.5793436404446837
  0.9998112297079231  0.5002471381654345  0.5793311509751575
  0.4999416321266494  0.9998112297079231  0.5793311509751575
  0.5002471381654345  0.4999416321266494  0.5793311509751575
  0.6666669999999968  0.6666669999999968  0.4155927351760766
  0.3333330000000032  0.3333330000000032  0.4166593847296980
  0.0000000000000000  0.0000000000000000  0.4166352468386947
  0.3366742241101761  0.9965501572888442  0.4567626927222932
  0.6665746702375372  0.0024974391032586  0.3753595340932421
  0.3309278906592041  0.6665746702375372  0.3753595340932421
  0.0024974391032586  0.3309278906592041  0.3753595340932421
  0.9965501572888442  0.6667756186009797  0.4567626927222932
  0.6667756186009797  0.3366742241101761  0.4567626927222932
  0.3333330000000032  0.3333330000000032  0.6116076965019062
  0.3329670801625682  0.8325850792602481  0.6117153730853317
  0.6666669999999968  0.6666669999999968  0.5468477666615428
  0.6666211717478774  0.1651434343060103  0.5469560923397694
  0.1682363939461027  0.6666211717478774  0.5469560923397694
  0.1651434343060103  0.1682363939461027  0.5469560923397694
  0.8344468405771934  0.3329670801625682  0.6117153730853317
  0.8325850792602481  0.8344468405771934  0.6117153730853317
 
  0.00000000E+00  0.00000000E+00  0.00000000E+00
  0.00000000E+00  0.00000000E+00  0.00000000E+00
  0.00000000E+00  0.00000000E+00  0.00000000E+00
  0.00000000E+00  0.00000000E+00  0.00000000E+00
  0.00000000E+00  0.00000000E+00  0.00000000E+00
  0.00000000E+00  0.00000000E+00  0.00000000E+00
  0.00000000E+00  0.00000000E+00  0.00000000E+00
  0.00000000E+00  0.00000000E+00  0.00000000E+00
  0.00000000E+00  0.00000000E+00  0.00000000E+00
  0.00000000E+00  0.00000000E+00  0.00000000E+00
  0.00000000E+00  0.00000000E+00  0.00000000E+00
  0.00000000E+00  0.00000000E+00  0.00000000E+00
  0.00000000E+00  0.00000000E+00  0.00000000E+00
  0.00000000E+00  0.00000000E+00  0.00000000E+00
  0.00000000E+00  0.00000000E+00  0.00000000E+00
  0.00000000E+00  0.00000000E+00  0.00000000E+00
  0.00000000E+00  0.00000000E+00  0.00000000E+00
  0.00000000E+00  0.00000000E+00  0.00000000E+00
  0.00000000E+00  0.00000000E+00  0.00000000E+00
  0.00000000E+00  0.00000000E+00  0.00000000E+00
  0.00000000E+00  0.00000000E+00  0.00000000E+00
