name                                    
   1.00000000000000     
     3.2874445571000002    0.0000000000000000    0.0000000000000000
    -1.6437222786000001    2.8470105000000001    0.0000000000000000
     0.0000000000000000    0.0000000000000000   25.0000000000000000
   Mo   Se
     1     2
Direct
 -0.0000000000000000  0.0000000000000000  0.5000000000000000
  0.6666666667000030  0.3333333332999970  0.4329337756963036
  0.6666666667000030  0.3333333332999970  0.5670662243036965
 
  0.00000000E+00  0.00000000E+00  0.00000000E+00
  0.00000000E+00  0.00000000E+00  0.00000000E+00
  0.00000000E+00  0.00000000E+00  0.00000000E+00
