Hf7 Se6 O8                              
   1.00000000000000     
    -3.2179829999999998   -5.5737110000000003    0.0000000000000000
    -6.4359669999999998    0.0000000000000000    0.0000000000000000
     0.0000000000000000    0.0000000000000000  -30.0000000000000000
   Hf   Se   O 
     7     6     8
Direct
  0.0002009481308320  0.9999994121379245  0.5861438300169368
  0.0001794352911020  0.5001038371908635  0.5855960161489477
  0.5002497557263865  0.9998691421260588  0.5856024361456349
  0.5004114152508947  0.5000334261201118  0.5856067556145206
  0.6666617677414806  0.6666689152715151  0.3875485834222516
  0.3333285112859770  0.3333325067849273  0.3947684231644146
  0.0000000989856659  0.9999977186539795  0.3947780965960419
  0.3392980973617910  0.9940981046177768  0.4476014982219780
  0.0056354275792216  0.6667474525468435  0.3369093160820640
  0.6667446183339365  0.3276143313226072  0.3369083302872014
  0.3276125405261041  0.0056383058789962  0.3369083664290997
  0.9941016512910110  0.6665960779642148  0.4476028440596451
  0.6665921241939259  0.3393018962356393  0.4476020969144372
  0.3336337365654387  0.3333464165112687  0.6181467416893085
  0.3342642995929026  0.8329865033204698  0.6183663074558723
  0.6669812647202704  0.6666595868550615  0.5530427391930743
  0.6677165270023266  0.1655482849371026  0.5533545496361683
  0.1672294451531329  0.6675149360346921  0.5533554856175513
  0.1657319159564921  0.1669473033873032  0.5533581726939474
  0.8332233380096170  0.3340757484296333  0.6183664688346013
  0.8332030813014981  0.8329200936730032  0.6183699417762796
 
  0.00000000E+00  0.00000000E+00  0.00000000E+00
  0.00000000E+00  0.00000000E+00  0.00000000E+00
  0.00000000E+00  0.00000000E+00  0.00000000E+00
  0.00000000E+00  0.00000000E+00  0.00000000E+00
  0.00000000E+00  0.00000000E+00  0.00000000E+00
  0.00000000E+00  0.00000000E+00  0.00000000E+00
  0.00000000E+00  0.00000000E+00  0.00000000E+00
  0.00000000E+00  0.00000000E+00  0.00000000E+00
  0.00000000E+00  0.00000000E+00  0.00000000E+00
  0.00000000E+00  0.00000000E+00  0.00000000E+00
  0.00000000E+00  0.00000000E+00  0.00000000E+00
  0.00000000E+00  0.00000000E+00  0.00000000E+00
  0.00000000E+00  0.00000000E+00  0.00000000E+00
  0.00000000E+00  0.00000000E+00  0.00000000E+00
  0.00000000E+00  0.00000000E+00  0.00000000E+00
  0.00000000E+00  0.00000000E+00  0.00000000E+00
  0.00000000E+00  0.00000000E+00  0.00000000E+00
  0.00000000E+00  0.00000000E+00  0.00000000E+00
  0.00000000E+00  0.00000000E+00  0.00000000E+00
  0.00000000E+00  0.00000000E+00  0.00000000E+00
  0.00000000E+00  0.00000000E+00  0.00000000E+00
