name                                    
   1.00000000000000     
     3.5340993904000002    0.0000000000000000    0.0000000000000000
    -1.7670496952000001    3.0606198515999998    0.0000000000000000
     0.0000000000000000    0.0000000000000000   25.0000000000000000
   Pb   O 
     1     2
Direct
 -0.0000000000000000  0.0000000000000000  0.5000000000000000
  0.6666666667000030  0.3333333332999970  0.4595919992509764
  0.3333333332999970  0.6666666667000030  0.5404080007490236
 
  0.00000000E+00  0.00000000E+00  0.00000000E+00
  0.00000000E+00  0.00000000E+00  0.00000000E+00
  0.00000000E+00  0.00000000E+00  0.00000000E+00
