Sn3 Pb3 O12                             
   1.00000000000000     
    -4.9609350000000001   -2.8641969999999999    0.0000000000000000
    -4.9609350000000001    2.8641969999999999    0.0000000000000000
     0.0000000000000000    0.0000000000000000  -30.0000000000000000
   Sn   Pb   O 
     3     3    12
Direct
  0.6666669999999968  0.6666669999999968  0.4236212811935403
  0.3333330000000032  0.3333330000000032  0.4236212811935403
  0.0000000000000000  0.0000000000000000  0.4236212811935403
  0.0000000000000000  0.0000000000000000  0.5786313730049315
  0.3333330000000032  0.3333330000000032  0.5786313730049315
  0.6666669999999968  0.6666669999999968  0.5786313730049315
  0.3333330000000032  0.6666669999999968  0.4560858288443015
  0.0000000000000000  0.6666669999999968  0.3910493152893295
  0.6666669999999968  0.3333330000000032  0.3910493152893295
  0.3333330000000032  0.0000000000000000  0.3910493152893295
  0.0000000000000000  0.3333330000000032  0.6160102044099105
  0.6666669999999968  0.0000000000000000  0.6160102044099105
  0.3333330000000032  0.6666669999999968  0.6160102044099105
  0.0000000000000000  0.6666669999999968  0.5412529972579989
  0.6666669999999968  0.3333330000000032  0.5412529972579989
  0.3333330000000032  0.0000000000000000  0.5412529972579989
  0.6666669999999968  0.0000000000000000  0.4560858288443015
  0.0000000000000000  0.3333330000000032  0.4560858288443015
 
  0.00000000E+00  0.00000000E+00  0.00000000E+00
  0.00000000E+00  0.00000000E+00  0.00000000E+00
  0.00000000E+00  0.00000000E+00  0.00000000E+00
  0.00000000E+00  0.00000000E+00  0.00000000E+00
  0.00000000E+00  0.00000000E+00  0.00000000E+00
  0.00000000E+00  0.00000000E+00  0.00000000E+00
  0.00000000E+00  0.00000000E+00  0.00000000E+00
  0.00000000E+00  0.00000000E+00  0.00000000E+00
  0.00000000E+00  0.00000000E+00  0.00000000E+00
  0.00000000E+00  0.00000000E+00  0.00000000E+00
  0.00000000E+00  0.00000000E+00  0.00000000E+00
  0.00000000E+00  0.00000000E+00  0.00000000E+00
  0.00000000E+00  0.00000000E+00  0.00000000E+00
  0.00000000E+00  0.00000000E+00  0.00000000E+00
  0.00000000E+00  0.00000000E+00  0.00000000E+00
  0.00000000E+00  0.00000000E+00  0.00000000E+00
  0.00000000E+00  0.00000000E+00  0.00000000E+00
  0.00000000E+00  0.00000000E+00  0.00000000E+00
