Hf4 Ni7 Se8 O14                         
   1.00000000000000     
    -3.7614079999999999   -6.5149499999999998    0.0000000000000000
    -7.5228159999999997    0.0000000000000000    0.0000000000000000
     0.0000000000000000    0.0000000000000000  -30.0000000000000000
   Hf   Ni   Se   O 
     4     7     8    14
Direct
  0.0000000000000000  0.0000000000000000  0.5952165668056395
  0.9994710391126631  0.4996230084545488  0.5956780806914992
  0.5009059524327810  0.9994710391126631  0.5956780806914992
  0.4996230084545488  0.5009059524327810  0.5956780806914992
  0.8568262689991002  0.4288252241184196  0.4185127415697920
  0.7143485068824802  0.8568262689991002  0.4185127415697920
  0.4288252241184196  0.7143485068824802  0.4185127415697920
  0.2858765416280420  0.1428317945322206  0.4185278475961383
  0.1428317945322206  0.5712916638397374  0.4185278475961383
  0.0000000000000000  0.0000000000000000  0.4181500197115611
  0.5712916638397374  0.2858765416280420  0.4185278475961383
  0.8333866802955896  0.3330146881320672  0.6481935083065551
  0.3333330000000032  0.3333330000000032  0.6481850096554567
  0.3330146881320672  0.8335976315723599  0.6481935083065551
  0.6666669999999968  0.6666669999999968  0.5434887938397210
  0.6659416729521723  0.1674531247214901  0.5437823693655801
  0.1666062023263351  0.6659416729521723  0.5437823693655801
  0.1674531247214901  0.1666062023263351  0.5437823693655801
  0.8335976315723599  0.8333866802955896  0.6481935083065551
  0.7626226152532496  0.0469596116086279  0.4497055252092679
  0.6189836207873682  0.4759099660406605  0.4499761913516167
  0.4759099660406605  0.9051064131719571  0.4499761913516167
  0.3333330000000032  0.3333330000000032  0.4500571917949898
  0.1904177731381154  0.7626226152532496  0.4497055252092679
  0.0949721609062308  0.3812098920152067  0.3873167673897768
  0.5238179470785624  0.0949721609062308  0.3873167673897768
  0.8088472024001021  0.2389335019868497  0.3871722768015786
  0.6666669999999968  0.6666669999999968  0.3872404933472566
  0.3812098920152067  0.5238179470785624  0.3873167673897768
  0.2389335019868497  0.9522192956130553  0.3871722768015786
  0.9051064131719571  0.6189836207873682  0.4499761913516167
  0.9522192956130553  0.8088472024001021  0.3871722768015786
  0.0469596116086279  0.1904177731381154  0.4497055252092679
 
  0.00000000E+00  0.00000000E+00  0.00000000E+00
  0.00000000E+00  0.00000000E+00  0.00000000E+00
  0.00000000E+00  0.00000000E+00  0.00000000E+00
  0.00000000E+00  0.00000000E+00  0.00000000E+00
  0.00000000E+00  0.00000000E+00  0.00000000E+00
  0.00000000E+00  0.00000000E+00  0.00000000E+00
  0.00000000E+00  0.00000000E+00  0.00000000E+00
  0.00000000E+00  0.00000000E+00  0.00000000E+00
  0.00000000E+00  0.00000000E+00  0.00000000E+00
  0.00000000E+00  0.00000000E+00  0.00000000E+00
  0.00000000E+00  0.00000000E+00  0.00000000E+00
  0.00000000E+00  0.00000000E+00  0.00000000E+00
  0.00000000E+00  0.00000000E+00  0.00000000E+00
  0.00000000E+00  0.00000000E+00  0.00000000E+00
  0.00000000E+00  0.00000000E+00  0.00000000E+00
  0.00000000E+00  0.00000000E+00  0.00000000E+00
  0.00000000E+00  0.00000000E+00  0.00000000E+00
  0.00000000E+00  0.00000000E+00  0.00000000E+00
  0.00000000E+00  0.00000000E+00  0.00000000E+00
  0.00000000E+00  0.00000000E+00  0.00000000E+00
  0.00000000E+00  0.00000000E+00  0.00000000E+00
  0.00000000E+00  0.00000000E+00  0.00000000E+00
  0.00000000E+00  0.00000000E+00  0.00000000E+00
  0.00000000E+00  0.00000000E+00  0.00000000E+00
  0.00000000E+00  0.00000000E+00  0.00000000E+00
  0.00000000E+00  0.00000000E+00  0.00000000E+00
  0.00000000E+00  0.00000000E+00  0.00000000E+00
  0.00000000E+00  0.00000000E+00  0.00000000E+00
  0.00000000E+00  0.00000000E+00  0.00000000E+00
  0.00000000E+00  0.00000000E+00  0.00000000E+00
  0.00000000E+00  0.00000000E+00  0.00000000E+00
  0.00000000E+00  0.00000000E+00  0.00000000E+00
  0.00000000E+00  0.00000000E+00  0.00000000E+00
