name                                    
   1.00000000000000     
     3.7856835542999998    0.0000000000000000    0.0000000000000000
    -1.8928417770999999    3.2784981286999999    0.0000000000000000
     0.0000000000000000    0.0000000000000000   25.0000000000000000
   Hf   S 
     1     2
Direct
  0.0000000000000000  0.0000000000000000  0.5000000000000000
  0.6666666667000030  0.3333333332999970  0.4451083451000276
  0.3333333332999970  0.6666666667000030  0.5548916548999724
 
  0.00000000E+00  0.00000000E+00  0.00000000E+00
  0.00000000E+00  0.00000000E+00  0.00000000E+00
  0.00000000E+00  0.00000000E+00  0.00000000E+00
